New POSCAR file                         
   1.00000000000000     
    10.2500000000000000    0.0000000000000000    0.0000000000000000
     0.0000000000000000   10.2500000000000000    0.0000000000000000
     0.0000000000000000    0.0000000000000000   12.3499999999999996
   Li   P    S    Cl
    30     5    25     5
Direct
  0.6391473170731672  0.8912936585365827  0.0086916599190303
  0.7260497560975594  0.5734829268292714  0.6105724696356276
  0.2210429268292700  0.1722039024390227  0.0257045344129523
  0.1605463414634158  0.7018917073170741  0.2040793522267208
  0.2874468292682906  0.1964331707317086  0.3278429149797546
  0.2055960975609779  0.0527232195121954  0.6622623481781389
  0.7390595121951193  0.5640253658536594  0.2163279352226724
  0.5084058536585374  0.0802772682926829  0.3024097165991932
  0.9841170731707294  0.9289375609756121  0.5882485829959521
  0.9297892682926800  0.3896468292682940  0.2332615384615409
  0.4378790243902415  0.9717287804878083  0.5264080971659908
  0.8930253658536600  0.5914497560975605  0.0142088259109343
  0.0063661853658559  0.3592526829268294  0.7361336032388692
  0.2985697560975638  0.5214087804878034  0.5995870445344096
  0.5997678048780486  0.2390136585365852  0.9876923076923063
  0.8408224390243930  0.1934380487804859  0.8321700404858277
  0.6199999999999974  0.5417580487804869  0.9910688259109293
  0.4467824390243891  0.4044439024390272  0.4361206477732793
  0.4819151219512179  0.6524809756097554  0.1529311740890691
  0.2083960975609784  0.7392790243902425  0.8637975708502026
  0.6881717073170748  0.2462107317073148  0.2214218623481798
  0.9749024390243903  0.6961170731707327  0.7254315789473651
  0.0259044878048798  0.3677248780487830  0.4502008097165984
  0.9060897560975576  0.2161102439024418  0.0398319028340097
  0.7141980487804886  0.1306165853658570  0.4507360323886616
  0.5467278048780457  0.6358243902439042  0.7762097165991904
  0.6254351219512202  0.8328419512195140  0.2440040485829940
  0.7077863414634180  0.0474206829268269  0.7705408906882596
  0.6000790243902472  0.2783102439024390  0.6092785425101184
  0.8970634146341467  0.8746585365853647  0.0249484210526347
  0.2965375609756080  0.6072985365853683  0.3382566801619404
  0.2804165853658560  0.4764068292682921  0.8857732793522288
  0.0947797073170733  0.4310878048780467  0.9842510121457479
  0.1962507317073161  0.7139521951219479  0.4867020242914961
  0.9793170731707335  0.6212302439024384  0.4561781376518184
  0.3675151219512216  0.1078946341463407  0.8039352226720666
  0.3822760975609754  0.8898624390243910  0.2225441295546560
  0.4381804878048783  0.9160302439024406  0.8291821862348172
  0.1995248780487771  0.9083063414634154  0.4862493927125513
  0.8479375609756090  0.7375492682926819  0.5433489878542517
  0.0261234146341494  0.1917785365853675  0.5890445344129560
  0.5042556097561004  0.6152673170731688  0.3351619433198394
  0.3933619512195108  0.6202282926829241  0.9520404858299614
  0.1856760975609788  0.3835190243902460  0.1370736842105273
  0.1831541463414652  0.5593512195121946  0.7435408906882586
  0.7712312195121953  0.3697999999999979  0.0760130364372458
  0.7697160975609734  0.5587639024390256  0.8162024291497971
  0.0751015609756109  0.2439190243902445  0.8997975708502040
  0.9506624390243914  0.6485619512195129  0.2910623481781371
  0.0797353170731725  0.2163882926829288  0.1848696356275283
  0.7854302439024394  0.0530051707317085  0.9582186234817840
  0.8378156097560989  0.1187570731707339  0.6061255060728712
  0.4781892682926809  0.1857951219512231  0.4636615384615368
  0.6924370731707299  0.7229453658536613  0.0881238866396785
  0.8012604878048748  0.3970741463414669  0.7333101214574924
  0.4496751219512163  0.1813599999999980  0.1440510121457521
  0.5367960975609734  0.2271053658536601  0.8096234817813794
  0.5572458536585359  0.8524214634146361  0.6917854251012159
  0.4136595121951245  0.0062730341463393  0.0786199190283412
  0.2398702439024376  0.4337599999999995  0.4121457489878537
  0.5269687804878060  0.4915326829268309  0.6086072874493951
  0.7944946341463393  0.3351307317073164  0.3766396761133635
  0.0886948292682916  0.8987639024390219  0.7572186234817835
  0.7507073170731715  0.0302271219512207  0.2905384615384605
  0.0739535609756103  0.7517307317073190  0.0267595141700383
 
  0.00000000E+00  0.00000000E+00  0.00000000E+00
  0.00000000E+00  0.00000000E+00  0.00000000E+00
  0.00000000E+00  0.00000000E+00  0.00000000E+00
  0.00000000E+00  0.00000000E+00  0.00000000E+00
  0.00000000E+00  0.00000000E+00  0.00000000E+00
  0.00000000E+00  0.00000000E+00  0.00000000E+00
  0.00000000E+00  0.00000000E+00  0.00000000E+00
  0.00000000E+00  0.00000000E+00  0.00000000E+00
  0.00000000E+00  0.00000000E+00  0.00000000E+00
  0.00000000E+00  0.00000000E+00  0.00000000E+00
  0.00000000E+00  0.00000000E+00  0.00000000E+00
  0.00000000E+00  0.00000000E+00  0.00000000E+00
  0.00000000E+00  0.00000000E+00  0.00000000E+00
  0.00000000E+00  0.00000000E+00  0.00000000E+00
  0.00000000E+00  0.00000000E+00  0.00000000E+00
  0.00000000E+00  0.00000000E+00  0.00000000E+00
  0.00000000E+00  0.00000000E+00  0.00000000E+00
  0.00000000E+00  0.00000000E+00  0.00000000E+00
  0.00000000E+00  0.00000000E+00  0.00000000E+00
  0.00000000E+00  0.00000000E+00  0.00000000E+00
  0.00000000E+00  0.00000000E+00  0.00000000E+00
  0.00000000E+00  0.00000000E+00  0.00000000E+00
  0.00000000E+00  0.00000000E+00  0.00000000E+00
  0.00000000E+00  0.00000000E+00  0.00000000E+00
  0.00000000E+00  0.00000000E+00  0.00000000E+00
  0.00000000E+00  0.00000000E+00  0.00000000E+00
  0.00000000E+00  0.00000000E+00  0.00000000E+00
  0.00000000E+00  0.00000000E+00  0.00000000E+00
  0.00000000E+00  0.00000000E+00  0.00000000E+00
  0.00000000E+00  0.00000000E+00  0.00000000E+00
  0.00000000E+00  0.00000000E+00  0.00000000E+00
  0.00000000E+00  0.00000000E+00  0.00000000E+00
  0.00000000E+00  0.00000000E+00  0.00000000E+00
  0.00000000E+00  0.00000000E+00  0.00000000E+00
  0.00000000E+00  0.00000000E+00  0.00000000E+00
  0.00000000E+00  0.00000000E+00  0.00000000E+00
  0.00000000E+00  0.00000000E+00  0.00000000E+00
  0.00000000E+00  0.00000000E+00  0.00000000E+00
  0.00000000E+00  0.00000000E+00  0.00000000E+00
  0.00000000E+00  0.00000000E+00  0.00000000E+00
  0.00000000E+00  0.00000000E+00  0.00000000E+00
  0.00000000E+00  0.00000000E+00  0.00000000E+00
  0.00000000E+00  0.00000000E+00  0.00000000E+00
  0.00000000E+00  0.00000000E+00  0.00000000E+00
  0.00000000E+00  0.00000000E+00  0.00000000E+00
  0.00000000E+00  0.00000000E+00  0.00000000E+00
  0.00000000E+00  0.00000000E+00  0.00000000E+00
  0.00000000E+00  0.00000000E+00  0.00000000E+00
  0.00000000E+00  0.00000000E+00  0.00000000E+00
  0.00000000E+00  0.00000000E+00  0.00000000E+00
  0.00000000E+00  0.00000000E+00  0.00000000E+00
  0.00000000E+00  0.00000000E+00  0.00000000E+00
  0.00000000E+00  0.00000000E+00  0.00000000E+00
  0.00000000E+00  0.00000000E+00  0.00000000E+00
  0.00000000E+00  0.00000000E+00  0.00000000E+00
  0.00000000E+00  0.00000000E+00  0.00000000E+00
  0.00000000E+00  0.00000000E+00  0.00000000E+00
  0.00000000E+00  0.00000000E+00  0.00000000E+00
  0.00000000E+00  0.00000000E+00  0.00000000E+00
  0.00000000E+00  0.00000000E+00  0.00000000E+00
  0.00000000E+00  0.00000000E+00  0.00000000E+00
  0.00000000E+00  0.00000000E+00  0.00000000E+00
  0.00000000E+00  0.00000000E+00  0.00000000E+00
  0.00000000E+00  0.00000000E+00  0.00000000E+00
  0.00000000E+00  0.00000000E+00  0.00000000E+00
