New POSCAR file
1
10.25 0.0 0.0
0.0 10.25 0.0
0.0 0.0 12.35
Li P S Cl
30 5 25 5
Cartesian
6.55126 9.13576 0.107342
7.44201 5.8782 7.54057
2.26569 1.76509 0.317451
1.6456 7.19439 2.52038
2.94633 2.01344 4.04886
2.10736 0.540413 8.17894
7.57536 5.78126 2.67165
5.21116 0.822842 3.73476
10.0872 9.52161 7.26487
9.53034 3.99388 2.88078
4.48826 9.96022 6.50114
9.15351 6.06236 0.175479
0.0652534 3.68234 9.09125
3.06034 5.34444 7.4049
6.14762 2.44989 12.198
8.61843 1.98274 10.2773
6.355 5.55302 12.2397
4.57952 4.14555 5.38609
4.93963 6.68793 1.8887
2.13606 7.57761 10.6679
7.05376 2.52366 2.73456
9.99275 7.1352 8.95908
0.265521 3.76918 5.55998
9.28742 2.21513 0.491924
7.32053 1.33882 5.56659
5.60396 6.5172 9.58619
6.41071 8.53663 3.01345
7.25481 0.486062 9.51618
6.15081 2.85268 7.52459
9.1949 8.96525 0.308113
3.03951 6.22481 4.17747
2.87427 4.88317 10.9393
0.971492 4.41865 12.1555
2.01157 7.31801 6.01077
10.038 6.36761 5.6338
3.76703 1.10592 9.9286
3.91833 9.12109 2.74842
4.49135 9.38931 10.2404
2.04513 9.31014 6.00518
8.69136 7.55988 6.71036
0.267765 1.96573 7.2747
5.16862 6.30649 4.13925
4.03196 6.35734 11.7577
1.90318 3.93107 1.69286
1.87733 5.73335 9.18273
7.90512 3.79045 0.938761
7.88959 5.72733 10.0801
0.769791 2.50017 11.1125
9.74429 6.64776 3.59462
0.817287 2.21798 2.28314
8.05066 0.543303 11.834
8.58761 1.21726 7.48565
4.90144 1.9044 5.72622
7.09748 7.41019 1.08833
8.21292 4.07001 9.05638
4.60917 1.85894 1.77903
5.50216 2.32783 9.99885
5.71177 8.73732 8.54355
4.24001 0.0642986 0.970956
2.45867 4.44604 5.09
5.40143 5.03821 7.5163
8.14357 3.43509 4.6515
0.909122 9.21233 9.35165
7.69475 0.309828 3.58815
0.758024 7.70524 0.33048
