New POSCAR file                         
   1.00000000000000     
    10.2500000000000000    0.0000000000000000    0.0000000000000000
     0.0000000000000000   10.2500000000000000    0.0000000000000000
     0.0000000000000000    0.0000000000000000   12.3499999999999996
   Li   P    S    Cl
    30     5    25     5
Direct
  0.6259629268292670  0.9104204878048776  0.0047356275303656
  0.7293736585365878  0.5710517073170749  0.6148817813765177
  0.2148692682926807  0.1525336585365835  0.0318420242914996
  0.1552975609756118  0.6901619512195154  0.1913983805668025
  0.2695951219512196  0.1795112195121931  0.3274623481781376
  0.2079980487804889  0.0564261463414653  0.6591951417004083
  0.7508292682926836  0.5696302439024379  0.2237797570850191
  0.5175990243902433  0.0683190243902416  0.3160923076923083
  0.9810731707317046  0.9300634146341480  0.5934599190283407
  0.9244117073170699  0.3760721951219494  0.2327570850202463
  0.4370585365853685  0.9755570731707337  0.5324704453441313
  0.8890468292682954  0.5980380487804879  0.0217551417004032
  0.0242610731707344  0.3596185365853657  0.7388753036437237
  0.3103004878048807  0.5307180487804857  0.5855028340080963
  0.5937209756097559  0.2500507317073186  0.9977813765182191
  0.8292634146341484  0.2196312195121948  0.8309473684210502
  0.6275580487804859  0.5353531707317103  0.9848582995951389
  0.4599697560975642  0.4050839024390243  0.4381643724696360
  0.4809170731707297  0.6490643902439004  0.1527060728744942
  0.2168302439024359  0.7442156097560968  0.8639595141700411
  0.6771112195121987  0.2641863414634145  0.2180574898785395
  0.9647043902439023  0.6831287804878059  0.7206380566801585
  0.0094860000000025  0.3632936585365840  0.4545967611336010
  0.9113219512195130  0.2059912195121925  0.0426212145749005
  0.7067346341463434  0.1310985365853625  0.4528574898785394
  0.5443678048780498  0.6352634146341458  0.7802072874493930
  0.6329843902439052  0.8633404878048765  0.2354785425101227
  0.6865287804878051  0.0420600975609773  0.7675546558704482
  0.6011102439024398  0.2690526829268265  0.6233497975708531
  0.9140282926829286  0.8854156097560946  0.0049699757085051
  0.3052156097560967  0.6119931707317079  0.3382704453441292
  0.2721765853658553  0.4763336585365820  0.8844615384615366
  0.0931323902439019  0.4275951219512208  0.9867368421052660
  0.1916507317073197  0.7062263414634131  0.4874639676113333
  0.9724380487804893  0.6219102439024411  0.4587546558704432
  0.3734653658536615  0.1089229268292655  0.8036502024291465
  0.3826565853658508  0.8945326829268296  0.2237781376518200
  0.4486887804878066  0.9228117073170736  0.8231740890688286
  0.2037004878048805  0.9159853658536576  0.4957449392712547
  0.8336302439024408  0.7443765853658562  0.5384631578947392
  0.0314899512195126  0.1873619512195148  0.5847910931174098
  0.5157941463414630  0.6113336585365872  0.3367433198380567
  0.3920185365853683  0.6280790243902459  0.9573279352226720
  0.1984663414634156  0.3725668292682940  0.1359773279352225
  0.1812195121951206  0.5611170731707347  0.7430947368421030
  0.7599599999999995  0.3722351219512205  0.0719182186234804
  0.7694956097560990  0.5567599999999970  0.8191417004048560
  0.0700060487804848  0.2529336585365840  0.8953765182186260
  0.9522390243902450  0.6404243902439006  0.2888251012145773
  0.0689223414634128  0.2241336585365872  0.1832736842105263
  0.7837707317073139  0.0601738536585401  0.9692793522267209
  0.8377073170731677  0.1122370731707321  0.6008161943319834
  0.4651482926829260  0.1949482926829234  0.4638639676113385
  0.7063512195121930  0.7176234146341471  0.0895967611336062
  0.7920097560975634  0.3840321951219536  0.7186340080971689
  0.4366390243902458  0.1823600000000027  0.1526550607287476
  0.5342936585365834  0.2391785365853636  0.8114331983805698
  0.5693336585365856  0.8543473170731701  0.6991206477732774
  0.4160087804878074  0.9955512195121941  0.0756172469635601
  0.2303151219512216  0.4380253658536617  0.4130623481781370
  0.5258302439024405  0.4880224390243910  0.6049748987854286
  0.7965453658536603  0.3245199999999997  0.3767327935222653
  0.1054985365853653  0.8914712195121979  0.7541149797570839
  0.7538887804878058  0.0402772682926837  0.2927497975708491
  0.0815864390243917  0.7398790243902411  0.0254447773279338
 
  0.00000000E+00  0.00000000E+00  0.00000000E+00
  0.00000000E+00  0.00000000E+00  0.00000000E+00
  0.00000000E+00  0.00000000E+00  0.00000000E+00
  0.00000000E+00  0.00000000E+00  0.00000000E+00
  0.00000000E+00  0.00000000E+00  0.00000000E+00
  0.00000000E+00  0.00000000E+00  0.00000000E+00
  0.00000000E+00  0.00000000E+00  0.00000000E+00
  0.00000000E+00  0.00000000E+00  0.00000000E+00
  0.00000000E+00  0.00000000E+00  0.00000000E+00
  0.00000000E+00  0.00000000E+00  0.00000000E+00
  0.00000000E+00  0.00000000E+00  0.00000000E+00
  0.00000000E+00  0.00000000E+00  0.00000000E+00
  0.00000000E+00  0.00000000E+00  0.00000000E+00
  0.00000000E+00  0.00000000E+00  0.00000000E+00
  0.00000000E+00  0.00000000E+00  0.00000000E+00
  0.00000000E+00  0.00000000E+00  0.00000000E+00
  0.00000000E+00  0.00000000E+00  0.00000000E+00
  0.00000000E+00  0.00000000E+00  0.00000000E+00
  0.00000000E+00  0.00000000E+00  0.00000000E+00
  0.00000000E+00  0.00000000E+00  0.00000000E+00
  0.00000000E+00  0.00000000E+00  0.00000000E+00
  0.00000000E+00  0.00000000E+00  0.00000000E+00
  0.00000000E+00  0.00000000E+00  0.00000000E+00
  0.00000000E+00  0.00000000E+00  0.00000000E+00
  0.00000000E+00  0.00000000E+00  0.00000000E+00
  0.00000000E+00  0.00000000E+00  0.00000000E+00
  0.00000000E+00  0.00000000E+00  0.00000000E+00
  0.00000000E+00  0.00000000E+00  0.00000000E+00
  0.00000000E+00  0.00000000E+00  0.00000000E+00
  0.00000000E+00  0.00000000E+00  0.00000000E+00
  0.00000000E+00  0.00000000E+00  0.00000000E+00
  0.00000000E+00  0.00000000E+00  0.00000000E+00
  0.00000000E+00  0.00000000E+00  0.00000000E+00
  0.00000000E+00  0.00000000E+00  0.00000000E+00
  0.00000000E+00  0.00000000E+00  0.00000000E+00
  0.00000000E+00  0.00000000E+00  0.00000000E+00
  0.00000000E+00  0.00000000E+00  0.00000000E+00
  0.00000000E+00  0.00000000E+00  0.00000000E+00
  0.00000000E+00  0.00000000E+00  0.00000000E+00
  0.00000000E+00  0.00000000E+00  0.00000000E+00
  0.00000000E+00  0.00000000E+00  0.00000000E+00
  0.00000000E+00  0.00000000E+00  0.00000000E+00
  0.00000000E+00  0.00000000E+00  0.00000000E+00
  0.00000000E+00  0.00000000E+00  0.00000000E+00
  0.00000000E+00  0.00000000E+00  0.00000000E+00
  0.00000000E+00  0.00000000E+00  0.00000000E+00
  0.00000000E+00  0.00000000E+00  0.00000000E+00
  0.00000000E+00  0.00000000E+00  0.00000000E+00
  0.00000000E+00  0.00000000E+00  0.00000000E+00
  0.00000000E+00  0.00000000E+00  0.00000000E+00
  0.00000000E+00  0.00000000E+00  0.00000000E+00
  0.00000000E+00  0.00000000E+00  0.00000000E+00
  0.00000000E+00  0.00000000E+00  0.00000000E+00
  0.00000000E+00  0.00000000E+00  0.00000000E+00
  0.00000000E+00  0.00000000E+00  0.00000000E+00
  0.00000000E+00  0.00000000E+00  0.00000000E+00
  0.00000000E+00  0.00000000E+00  0.00000000E+00
  0.00000000E+00  0.00000000E+00  0.00000000E+00
  0.00000000E+00  0.00000000E+00  0.00000000E+00
  0.00000000E+00  0.00000000E+00  0.00000000E+00
  0.00000000E+00  0.00000000E+00  0.00000000E+00
  0.00000000E+00  0.00000000E+00  0.00000000E+00
  0.00000000E+00  0.00000000E+00  0.00000000E+00
  0.00000000E+00  0.00000000E+00  0.00000000E+00
  0.00000000E+00  0.00000000E+00  0.00000000E+00
