New POSCAR file                         
   1.00000000000000     
    16.0260819999999988    0.0000000000000000    0.0000000000000000
     0.0000000000000000   16.1000000000000014    0.0000000000000000
     0.0000000000000000    0.0000000000000000   16.4253670000000014
   Li   P    S    Cl
    96    16    80    16
Direct
  0.7199139502718097  0.8096211180124229  0.1910605711275721
  0.5670481406497245  0.6767950310559030  0.0042225297005558
  0.6547888623058356  0.6331801242235997  0.1893790257471863
  0.8340903285032510  0.9401987577639730  0.0147874930283152
  0.5762487674779138  0.7767018633540346  0.2901061510528180
  0.9022105340531752  0.7664099378881986  0.9092521342141069
  0.2395844474026774  0.0482799378881964  0.0470304864420967
  0.2131749981062114  0.8473229813664602  0.2848137274497446
  0.1120854117681418  0.9953788819875768  0.3646378190514739
  0.2240672423865036  0.7417142857142878  0.0506358853351614
  0.1033933309463890  0.6916770186335413  0.8993771646015603
  0.3331980954546481  0.8449503105590068  0.4287033586525055
  0.3480052080102922  0.4792049689440958  0.6057745924337610
  0.5170795956241818  0.7982608695652189  0.5297397616747332
  0.7220292520654752  0.8521925465838507  0.7707833864534024
  0.3424829599648902  0.6428819875776384  0.4428321144970440
  0.7048572445841756  0.5343633540372679  0.7646160965535813
  0.1589190670558125  0.7109875776397487  0.6195234480909946
  0.9717659001120822  0.9109316770186311  0.8750915580759937
  0.9237254620312072  0.4670354037267046  0.9701944559290538
  0.1630841524459967  0.4677931677018634  0.6849101149459855
  0.5131366481214812  0.9005093167701830  0.8623186319063691
  0.0028142374411928  0.6163987577639745  0.7481963721115008
  0.8409416599765294  0.5856596273291927  0.8459658770485916
  0.3589742021786719  0.4831229813664564  0.8792619367348067
  0.0835581647466910  0.5131316770186345  0.8750550292118291
  0.2388387879208409  0.6105037267080746  0.8233301575544729
  0.4279024654934389  0.7013913043478226  0.9208683130185165
  0.0620141591687826  0.3160788819875791  0.6877898070709776
  0.5318854602141698  0.6432732919254676  0.7344493428974843
  0.2730392868325495  0.2690130434782603  0.0437721117585994
  0.3509722463668936  0.1708012422360241  0.1480192192965930
  0.4689923588310592  0.0737913043478287  0.0130347163628031
  0.4315864601216930  0.3225850931677030  0.0475902304039835
  0.6252370354775394  0.3821888198757790  0.1986920596660013
  0.0701674932151235  0.1621577639751521  0.1254669073756460
  0.7974126177564784  0.1141068322981340  0.4792830504182959
  0.8246806674270104  0.3079478260869593  0.6709926176991985
  0.6303100158853567  0.9997142857142833  0.9428830418218368
  0.5812256545299093  0.3078962732919237  0.6940179784110754
  0.8619137228924671  0.1736440993788833  0.8088099340489592
  0.7664505897324148  0.3180472049689413  0.8596581129663647
  0.4685424672106393  0.2096968944099373  0.3523135890966671
  0.2557824176863690  0.0064481987577665  0.7378221746887021
  0.3225822755680383  0.0917596273291892  0.3367924747130431
  0.9825795225557954  0.1626211180124244  0.6250149540037668
  0.4189196086729154  0.9949378881987556  0.5018371887824458
  0.9425635036685804  0.3150291925465822  0.4142129670527268
  0.3847434450915728  0.4157409937888232  0.3980866911527770
  0.9940358473143931  0.2138409937888213  0.2625816519046396
  0.1811571911338064  0.2736720496894378  0.3098335641450234
  0.9727205938419630  0.3922602484472080  0.2123051497114190
  0.1319985758215907  0.4812291925465857  0.3224268900658345
  0.2852250475194111  0.4883590062111836  0.1990622188228741
  0.7882151108424367  0.6063167701863321  0.3054147892098840
  0.1009423263901965  0.5717422360248463  0.0811914887502994
  0.8123258073932220  0.4784782608695650  0.1302095715730403
  0.0821236282205504  0.7069192546583878  0.2932019722907881
  0.9549433230155699  0.6650062111801276  0.0488306897495789
  0.1112548906214244  0.4027167701863377  0.4640736490088742
  0.4402835328060846  0.0068188198757753  0.7559952846106910
  0.3341846123088601  0.9412360248447200  0.9217206531823621
  0.3927847118216405  0.8857329192546572  0.6407710707468510
  0.0915663603867714  0.8424472049689413  0.7335726501575266
  0.2076440143011880  0.8470931677018640  0.8544405735348235
  0.3152467334186824  0.7495838509316783  0.7437581151154760
  0.0414949205925694  0.8288944099378881  0.4544251583541481
  0.8773760174196070  0.9017391304347839  0.4894112868223885
  0.8715417779592016  0.7948881987577607  0.2544673735448342
  0.8904734170210773  0.7363291925465845  0.5376805279297585
  0.7812701819446559  0.7695776397515530  0.4170981385073489
  0.7493597000190064  0.0993385093167731  0.7045200268584537
  0.9948220656801823  0.3383826086956532  0.8664037765488004
  0.3748789005322664  0.1799726708074516  0.8620933705773481
  0.1392698477394561  0.1670111801242271  0.8430070390512441
  0.2906156351876916  0.3374167701863371  0.7761105124774375
  0.0951860847835420  0.8688198757763956  0.0552172137158351
  0.2121834893893606  0.4572776397515526  0.9483136662943323
  0.5884220485081784  0.4259043478260836  0.3919845443940488
  0.5078059628048806  0.5774602484472027  0.1326618759873099
  0.7108100407822704  0.2291552795031038  0.3145506581374988
  0.5295966911937668  0.5959590062111815  0.2942740944540247
  0.4240562353293811  0.7100124223602506  0.2368872488511187
  0.7719541182929177  0.4170080745341593  0.3556267570764149
  0.8343898402616432  0.0488932919254665  0.2717205649042711
  0.5013957871924006  0.8681801242235991  0.1261439089915015
  0.6383157155941177  0.6698944099378892  0.4046588426304254
  0.6967205084811141  0.9355217391304365  0.3311091922634049
  0.4622177772458684  0.0226969565217416  0.2465947945029185
  0.5387049685631240  0.9356024844720494  0.3822057674571298
  0.3888660996493059  0.2238496894409963  0.6995033961798214
  0.8212175627205696  0.5539329192546560  0.5688926159153738
  0.5826470874166247  0.1013378881987563  0.7181452931919239
  0.2002042670192239  0.1890366459627302  0.6524907479997282
  0.5915251151217120  0.1014105590062115  0.4785896108135645
  0.6262915664602247  0.1948745341614924  0.8596276722462264
  0.6984676604050790  0.9243229813664584  0.5742173066817955
  0.6272150610486094  0.6898260869565220  0.6134900973597723
  0.3469550449074177  0.2945571428571441  0.2309927078037290
  0.2083909217486877  0.9580745341614900  0.5304989532349538
  0.9341958939184281  0.5582031055900600  0.3842903479721329
  0.9013369580911927  0.4400788819875743  0.7304676967035206
  0.5303542063493722  0.3219975155279471  0.5663690802159849
  0.0988189128197376  0.6038273291925478  0.5151203014215753
  0.6081904485450664  0.1068776397515521  0.2592763985121280
  0.7910916716886902  0.0073139751552773  0.8510981824637440
  0.9027409194586653  0.8418819875776364  0.1125685654390551
  0.3366206412771362  0.5260919254658418  0.0491996921590854
  0.8434563107813844  0.2630509316770215  0.1896621244444674
  0.6730216405981224  0.4680273291925445  0.9876065478476050
  0.2708565948932531  0.6632608695652138  0.2493722058082497
  0.5080929949066757  0.4153670807453409  0.8466660136117525
  0.6949171981024449  0.0453437888198778  0.5678631107603280
  0.6554440442773242  0.8810745341614918  0.4604749470742391
  0.6065113107495677  0.8752111801242251  0.6446553066363734
  0.7971630246244814  0.8743229813664612  0.6277667951041792
  0.6855262565111033  0.6765403726708072  0.7268756917273151
  0.7145040191358092  0.7409627329192574  0.2965090521265097
  0.5071139658464219  0.9589565217391325  0.6292827429670211
  0.5059358862634014  0.6943229813664615  0.4248562604415440
  0.4183336887955491  0.3991316770186302  0.1840141532301800
  0.3420698833314333  0.2868503105590037  0.3537662202616261
  0.1235660718571125  0.1368279503105612  0.2640038423494602
  0.2397697703031838  0.3444354037267061  0.1831240665733702
  0.2459028975391462  0.9679565217391328  0.4063361263099949
  0.2786588761994366  0.0436773913043496  0.5749807599428394
  0.2789065973829423  0.8382484472049683  0.5597573558021551
  0.0846520066476657  0.9549440993788849  0.5291145092831115
  0.8929319093712351  0.4514571428571443  0.4354338018748649
  0.6640050887047764  0.5244857142857171  0.3035499906942718
  0.0682905528625142  0.5862838509316788  0.3895687688439438
  0.6757297260802702  0.3145391304347811  0.4348858689123958
  0.8690021678411455  0.4108472049689453  0.8528576560876857
  0.0263328242049425  0.4399254658385061  0.7588567123035972
  0.8678228402924688  0.5617664596273286  0.6928612310458604
  0.6752929380992825  0.4885571428571396  0.5494732629109578
  0.5760802921138151  0.5754819875776391  0.5823443701440567
  0.4759322958662011  0.4315701863354064  0.5162033822440648
  0.4263050694486665  0.2368658385093170  0.5756461940850386
  0.5576958859938443  0.2655701863354025  0.4717404487826684
  0.0332507970444667  0.7116894409937871  0.5687148421097703
  0.3489311985299963  0.6474099378881988  0.5836600180683931
  0.0545561291899048  0.4926819875776403  0.5697218211319139
  0.1682894172137637  0.7201863354037243  0.7717635776418277
  0.4685568188157276  0.0704937888198742  0.3898360383667523
  0.6945365685761473  0.1046546583850940  0.1489945399697916
  0.6793613061508097  0.0844024844720508  0.3540986329255205
  0.5871815706421586  0.2392378881987582  0.2399654144714063
  0.7480118971062311  0.1009577639751527  0.9363991684325867
  0.6817698798745724  0.9948260869565217  0.7874892536647735
  0.7927015473900596  0.8837577639751544  0.9004547660944198
  0.8811885525108352  0.0357550310558992  0.7752033790173485
  0.8260846287944830  0.9437329192546571  0.1606247215054637
  0.9200751624757686  0.5799826086956514  0.2372360995038960
  0.9720279729006762  0.9112981366459607  0.0276689099245075
  0.8402053602371424  0.7692795031055866  0.0580502097761340
  0.3692842704785875  0.5832770186335381  0.2828399511560349
  0.4460110712025553  0.5667130434782592  0.9884954168756153
  0.2446031413042817  0.6081925465838509  0.9833387588843507
  0.3326252792167139  0.4156627329192517  0.0048394108941352
  0.8594302712291153  0.1915204968944124  0.2781399039668315
  0.7421027797062294  0.2181385093167734  0.1104998140985245
  0.9483852634723817  0.2613068322981391  0.1268458719978653
  0.8198510403228951  0.3627236024844720  0.2249599658869101
  0.6503648240412119  0.5041714285714249  0.1011867801797095
  0.5949950836392830  0.3710322981366474  0.9429804521262781
  0.7644101658783455  0.4081366459627347  0.9902244497794186
  0.7139736337303120  0.5633757763975140  0.9200037965666183
  0.1686132643025289  0.5901099378882009  0.2199323765490320
  0.3044012878506450  0.7591366459627338  0.1860439404489398
  0.4563454748328368  0.7931428571428540  0.3637708673419624
  0.2429327392683973  0.7074968944099354  0.3789510456600453
  0.5077591640926329  0.2820602484472019  0.8021982096351365
  0.7063797626893447  0.4156627329192517  0.6514618516590858
  0.5036415013975315  0.0882354037267064  0.8632927349507611
  0.5583791471926816  0.4802944099378905  0.7531521213498635
  0.5424026908136383  0.7041304347826056  0.1723626631904196
  0.2294141512566839  0.8976770186335372  0.0012318689743722
  0.4317979903010638  0.7246645962732927  0.6299402625219912
  0.9753288420713204  0.6104049689441027  0.9188105203372317
  0.2302715036650866  0.4695757763975124  0.8138630935917561
  0.3803156629299664  0.1810770186335375  0.9983521220560831
  0.7223474833087735  0.2346354037267062  0.7567563026141215
  0.2593453596456072  0.1738826086956493  0.7733404069449392
  0.0587039926539745  0.3485161490683240  0.3384533204037368
  0.9638163588580184  0.5158472049689422  0.1284336599602298
  0.3372964146820152  0.9149937888198778  0.7866551779330138
  0.9228768453824188  0.8185900621118023  0.4051775525015699
  0.0013303563528524  0.2170217391304377  0.7877206031378137
  0.5308671202356265  0.4348055900621119  0.2566195324585436
  0.5852983904612472  0.9208695652173944  0.2351509101744895
  0.4734582039452917  0.1372055900621092  0.6256968261348419
  0.5291623991440986  0.9364409937888212  0.0059063459586639
  0.3701541025435944  0.0114343478260892  0.1617205874304091
  0.2472369728296684  0.4557173913043471  0.4350125023081688
  0.5332557265088269  0.7645403726708082  0.8928263216280001
  0.3823404872132841  0.6366708074534131  0.7884572685651392
  0.1480424223462720  0.1640844720496872  0.9959899221734290
  0.8772761801668025  0.2140198757763940  0.5490653572611208
  0.1015032869543546  0.2502298136645962  0.5789745824248556
  0.0885406676441534  0.7343788819875741  0.0669160086346920
  0.0811109040874740  0.8540621118012410  0.2750136420087301
  0.1055410798472138  0.9452546583850960  0.7740831605162910
  0.9471622571256049  0.7961490683229826  0.7710634410786668
  0.0648442956924811  0.4245434782608726  0.9751745577435216
  0.7781377881381104  0.6641055900621140  0.5090625981142480
  0.8937555667068224  0.0225019875776411  0.3917580654362212
  0.2749249629447803  0.3786614906832284  0.6339340850040074
 
  0.00000000E+00  0.00000000E+00  0.00000000E+00
  0.00000000E+00  0.00000000E+00  0.00000000E+00
  0.00000000E+00  0.00000000E+00  0.00000000E+00
  0.00000000E+00  0.00000000E+00  0.00000000E+00
  0.00000000E+00  0.00000000E+00  0.00000000E+00
  0.00000000E+00  0.00000000E+00  0.00000000E+00
  0.00000000E+00  0.00000000E+00  0.00000000E+00
  0.00000000E+00  0.00000000E+00  0.00000000E+00
  0.00000000E+00  0.00000000E+00  0.00000000E+00
  0.00000000E+00  0.00000000E+00  0.00000000E+00
  0.00000000E+00  0.00000000E+00  0.00000000E+00
  0.00000000E+00  0.00000000E+00  0.00000000E+00
  0.00000000E+00  0.00000000E+00  0.00000000E+00
  0.00000000E+00  0.00000000E+00  0.00000000E+00
  0.00000000E+00  0.00000000E+00  0.00000000E+00
  0.00000000E+00  0.00000000E+00  0.00000000E+00
  0.00000000E+00  0.00000000E+00  0.00000000E+00
  0.00000000E+00  0.00000000E+00  0.00000000E+00
  0.00000000E+00  0.00000000E+00  0.00000000E+00
  0.00000000E+00  0.00000000E+00  0.00000000E+00
  0.00000000E+00  0.00000000E+00  0.00000000E+00
  0.00000000E+00  0.00000000E+00  0.00000000E+00
  0.00000000E+00  0.00000000E+00  0.00000000E+00
  0.00000000E+00  0.00000000E+00  0.00000000E+00
  0.00000000E+00  0.00000000E+00  0.00000000E+00
  0.00000000E+00  0.00000000E+00  0.00000000E+00
  0.00000000E+00  0.00000000E+00  0.00000000E+00
  0.00000000E+00  0.00000000E+00  0.00000000E+00
  0.00000000E+00  0.00000000E+00  0.00000000E+00
  0.00000000E+00  0.00000000E+00  0.00000000E+00
  0.00000000E+00  0.00000000E+00  0.00000000E+00
  0.00000000E+00  0.00000000E+00  0.00000000E+00
  0.00000000E+00  0.00000000E+00  0.00000000E+00
  0.00000000E+00  0.00000000E+00  0.00000000E+00
  0.00000000E+00  0.00000000E+00  0.00000000E+00
  0.00000000E+00  0.00000000E+00  0.00000000E+00
  0.00000000E+00  0.00000000E+00  0.00000000E+00
  0.00000000E+00  0.00000000E+00  0.00000000E+00
  0.00000000E+00  0.00000000E+00  0.00000000E+00
  0.00000000E+00  0.00000000E+00  0.00000000E+00
  0.00000000E+00  0.00000000E+00  0.00000000E+00
  0.00000000E+00  0.00000000E+00  0.00000000E+00
  0.00000000E+00  0.00000000E+00  0.00000000E+00
  0.00000000E+00  0.00000000E+00  0.00000000E+00
  0.00000000E+00  0.00000000E+00  0.00000000E+00
  0.00000000E+00  0.00000000E+00  0.00000000E+00
  0.00000000E+00  0.00000000E+00  0.00000000E+00
  0.00000000E+00  0.00000000E+00  0.00000000E+00
  0.00000000E+00  0.00000000E+00  0.00000000E+00
  0.00000000E+00  0.00000000E+00  0.00000000E+00
  0.00000000E+00  0.00000000E+00  0.00000000E+00
  0.00000000E+00  0.00000000E+00  0.00000000E+00
  0.00000000E+00  0.00000000E+00  0.00000000E+00
  0.00000000E+00  0.00000000E+00  0.00000000E+00
  0.00000000E+00  0.00000000E+00  0.00000000E+00
  0.00000000E+00  0.00000000E+00  0.00000000E+00
  0.00000000E+00  0.00000000E+00  0.00000000E+00
  0.00000000E+00  0.00000000E+00  0.00000000E+00
  0.00000000E+00  0.00000000E+00  0.00000000E+00
  0.00000000E+00  0.00000000E+00  0.00000000E+00
  0.00000000E+00  0.00000000E+00  0.00000000E+00
  0.00000000E+00  0.00000000E+00  0.00000000E+00
  0.00000000E+00  0.00000000E+00  0.00000000E+00
  0.00000000E+00  0.00000000E+00  0.00000000E+00
  0.00000000E+00  0.00000000E+00  0.00000000E+00
  0.00000000E+00  0.00000000E+00  0.00000000E+00
  0.00000000E+00  0.00000000E+00  0.00000000E+00
  0.00000000E+00  0.00000000E+00  0.00000000E+00
  0.00000000E+00  0.00000000E+00  0.00000000E+00
  0.00000000E+00  0.00000000E+00  0.00000000E+00
  0.00000000E+00  0.00000000E+00  0.00000000E+00
  0.00000000E+00  0.00000000E+00  0.00000000E+00
  0.00000000E+00  0.00000000E+00  0.00000000E+00
  0.00000000E+00  0.00000000E+00  0.00000000E+00
  0.00000000E+00  0.00000000E+00  0.00000000E+00
  0.00000000E+00  0.00000000E+00  0.00000000E+00
  0.00000000E+00  0.00000000E+00  0.00000000E+00
  0.00000000E+00  0.00000000E+00  0.00000000E+00
  0.00000000E+00  0.00000000E+00  0.00000000E+00
  0.00000000E+00  0.00000000E+00  0.00000000E+00
  0.00000000E+00  0.00000000E+00  0.00000000E+00
  0.00000000E+00  0.00000000E+00  0.00000000E+00
  0.00000000E+00  0.00000000E+00  0.00000000E+00
  0.00000000E+00  0.00000000E+00  0.00000000E+00
  0.00000000E+00  0.00000000E+00  0.00000000E+00
  0.00000000E+00  0.00000000E+00  0.00000000E+00
  0.00000000E+00  0.00000000E+00  0.00000000E+00
  0.00000000E+00  0.00000000E+00  0.00000000E+00
  0.00000000E+00  0.00000000E+00  0.00000000E+00
  0.00000000E+00  0.00000000E+00  0.00000000E+00
  0.00000000E+00  0.00000000E+00  0.00000000E+00
  0.00000000E+00  0.00000000E+00  0.00000000E+00
  0.00000000E+00  0.00000000E+00  0.00000000E+00
  0.00000000E+00  0.00000000E+00  0.00000000E+00
  0.00000000E+00  0.00000000E+00  0.00000000E+00
  0.00000000E+00  0.00000000E+00  0.00000000E+00
  0.00000000E+00  0.00000000E+00  0.00000000E+00
  0.00000000E+00  0.00000000E+00  0.00000000E+00
  0.00000000E+00  0.00000000E+00  0.00000000E+00
  0.00000000E+00  0.00000000E+00  0.00000000E+00
  0.00000000E+00  0.00000000E+00  0.00000000E+00
  0.00000000E+00  0.00000000E+00  0.00000000E+00
  0.00000000E+00  0.00000000E+00  0.00000000E+00
  0.00000000E+00  0.00000000E+00  0.00000000E+00
  0.00000000E+00  0.00000000E+00  0.00000000E+00
  0.00000000E+00  0.00000000E+00  0.00000000E+00
  0.00000000E+00  0.00000000E+00  0.00000000E+00
  0.00000000E+00  0.00000000E+00  0.00000000E+00
  0.00000000E+00  0.00000000E+00  0.00000000E+00
  0.00000000E+00  0.00000000E+00  0.00000000E+00
  0.00000000E+00  0.00000000E+00  0.00000000E+00
  0.00000000E+00  0.00000000E+00  0.00000000E+00
  0.00000000E+00  0.00000000E+00  0.00000000E+00
  0.00000000E+00  0.00000000E+00  0.00000000E+00
  0.00000000E+00  0.00000000E+00  0.00000000E+00
  0.00000000E+00  0.00000000E+00  0.00000000E+00
  0.00000000E+00  0.00000000E+00  0.00000000E+00
  0.00000000E+00  0.00000000E+00  0.00000000E+00
  0.00000000E+00  0.00000000E+00  0.00000000E+00
  0.00000000E+00  0.00000000E+00  0.00000000E+00
  0.00000000E+00  0.00000000E+00  0.00000000E+00
  0.00000000E+00  0.00000000E+00  0.00000000E+00
  0.00000000E+00  0.00000000E+00  0.00000000E+00
  0.00000000E+00  0.00000000E+00  0.00000000E+00
  0.00000000E+00  0.00000000E+00  0.00000000E+00
  0.00000000E+00  0.00000000E+00  0.00000000E+00
  0.00000000E+00  0.00000000E+00  0.00000000E+00
  0.00000000E+00  0.00000000E+00  0.00000000E+00
  0.00000000E+00  0.00000000E+00  0.00000000E+00
  0.00000000E+00  0.00000000E+00  0.00000000E+00
  0.00000000E+00  0.00000000E+00  0.00000000E+00
  0.00000000E+00  0.00000000E+00  0.00000000E+00
  0.00000000E+00  0.00000000E+00  0.00000000E+00
  0.00000000E+00  0.00000000E+00  0.00000000E+00
  0.00000000E+00  0.00000000E+00  0.00000000E+00
  0.00000000E+00  0.00000000E+00  0.00000000E+00
  0.00000000E+00  0.00000000E+00  0.00000000E+00
  0.00000000E+00  0.00000000E+00  0.00000000E+00
  0.00000000E+00  0.00000000E+00  0.00000000E+00
  0.00000000E+00  0.00000000E+00  0.00000000E+00
  0.00000000E+00  0.00000000E+00  0.00000000E+00
  0.00000000E+00  0.00000000E+00  0.00000000E+00
  0.00000000E+00  0.00000000E+00  0.00000000E+00
  0.00000000E+00  0.00000000E+00  0.00000000E+00
  0.00000000E+00  0.00000000E+00  0.00000000E+00
  0.00000000E+00  0.00000000E+00  0.00000000E+00
  0.00000000E+00  0.00000000E+00  0.00000000E+00
  0.00000000E+00  0.00000000E+00  0.00000000E+00
  0.00000000E+00  0.00000000E+00  0.00000000E+00
  0.00000000E+00  0.00000000E+00  0.00000000E+00
  0.00000000E+00  0.00000000E+00  0.00000000E+00
  0.00000000E+00  0.00000000E+00  0.00000000E+00
  0.00000000E+00  0.00000000E+00  0.00000000E+00
  0.00000000E+00  0.00000000E+00  0.00000000E+00
  0.00000000E+00  0.00000000E+00  0.00000000E+00
  0.00000000E+00  0.00000000E+00  0.00000000E+00
  0.00000000E+00  0.00000000E+00  0.00000000E+00
  0.00000000E+00  0.00000000E+00  0.00000000E+00
  0.00000000E+00  0.00000000E+00  0.00000000E+00
  0.00000000E+00  0.00000000E+00  0.00000000E+00
  0.00000000E+00  0.00000000E+00  0.00000000E+00
  0.00000000E+00  0.00000000E+00  0.00000000E+00
  0.00000000E+00  0.00000000E+00  0.00000000E+00
  0.00000000E+00  0.00000000E+00  0.00000000E+00
  0.00000000E+00  0.00000000E+00  0.00000000E+00
  0.00000000E+00  0.00000000E+00  0.00000000E+00
  0.00000000E+00  0.00000000E+00  0.00000000E+00
  0.00000000E+00  0.00000000E+00  0.00000000E+00
  0.00000000E+00  0.00000000E+00  0.00000000E+00
  0.00000000E+00  0.00000000E+00  0.00000000E+00
  0.00000000E+00  0.00000000E+00  0.00000000E+00
  0.00000000E+00  0.00000000E+00  0.00000000E+00
  0.00000000E+00  0.00000000E+00  0.00000000E+00
  0.00000000E+00  0.00000000E+00  0.00000000E+00
  0.00000000E+00  0.00000000E+00  0.00000000E+00
  0.00000000E+00  0.00000000E+00  0.00000000E+00
  0.00000000E+00  0.00000000E+00  0.00000000E+00
  0.00000000E+00  0.00000000E+00  0.00000000E+00
  0.00000000E+00  0.00000000E+00  0.00000000E+00
  0.00000000E+00  0.00000000E+00  0.00000000E+00
  0.00000000E+00  0.00000000E+00  0.00000000E+00
  0.00000000E+00  0.00000000E+00  0.00000000E+00
  0.00000000E+00  0.00000000E+00  0.00000000E+00
  0.00000000E+00  0.00000000E+00  0.00000000E+00
  0.00000000E+00  0.00000000E+00  0.00000000E+00
  0.00000000E+00  0.00000000E+00  0.00000000E+00
  0.00000000E+00  0.00000000E+00  0.00000000E+00
  0.00000000E+00  0.00000000E+00  0.00000000E+00
  0.00000000E+00  0.00000000E+00  0.00000000E+00
  0.00000000E+00  0.00000000E+00  0.00000000E+00
  0.00000000E+00  0.00000000E+00  0.00000000E+00
  0.00000000E+00  0.00000000E+00  0.00000000E+00
  0.00000000E+00  0.00000000E+00  0.00000000E+00
  0.00000000E+00  0.00000000E+00  0.00000000E+00
  0.00000000E+00  0.00000000E+00  0.00000000E+00
  0.00000000E+00  0.00000000E+00  0.00000000E+00
  0.00000000E+00  0.00000000E+00  0.00000000E+00
  0.00000000E+00  0.00000000E+00  0.00000000E+00
  0.00000000E+00  0.00000000E+00  0.00000000E+00
  0.00000000E+00  0.00000000E+00  0.00000000E+00
  0.00000000E+00  0.00000000E+00  0.00000000E+00
  0.00000000E+00  0.00000000E+00  0.00000000E+00
  0.00000000E+00  0.00000000E+00  0.00000000E+00
  0.00000000E+00  0.00000000E+00  0.00000000E+00
  0.00000000E+00  0.00000000E+00  0.00000000E+00
  0.00000000E+00  0.00000000E+00  0.00000000E+00
  0.00000000E+00  0.00000000E+00  0.00000000E+00
  0.00000000E+00  0.00000000E+00  0.00000000E+00
