New POSCAR file                         
   1.00000000000000     
    10.2500000000000000    0.0000000000000000    0.0000000000000000
     0.0000000000000000   10.2500000000000000    0.0000000000000000
     0.0000000000000000    0.0000000000000000   12.3499999999999996
   Li   P    S    Cl
    30     5    25     5
Direct
  0.6277951219512161  0.8942507317073165  0.0045821538461510
  0.7319726829268305  0.5697180487804872  0.6119004048582966
  0.2299941463414612  0.1741170731707342  0.0287863157894748
  0.1534048780487822  0.7262185365853639  0.2058987854250987
  0.2985219512195130  0.2080390243902457  0.3243206477732770
  0.1995736585365862  0.0480953170731695  0.6622753036437246
  0.7341424390243887  0.5590439024390221  0.2152267206477703
  0.5111892682926822  0.0718182439024417  0.3012291497975710
  0.9825463414634115  0.9326721951219525  0.5807384615384592
  0.9387385365853689  0.4024078048780453  0.2275182186234801
  0.4321219512195142  0.9660936585365860  0.5258866396761164
  0.8905043902439047  0.5874117073170737  0.0085180566801597
  0.0143054634146367  0.3639717073170701  0.7341967611336031
  0.2959824390243924  0.5227395121951233  0.5993449392712549
  0.6172341463414668  0.2296546341463426  0.9861457489878518
  0.8520126829268264  0.1868429268292715  0.8278542510121483
  0.6238760975609736  0.5400029268292670  0.9894008097165994
  0.4633004878048794  0.4039063414634114  0.4323595141700380
  0.4760868292682900  0.6606351219512163  0.1475311740890675
  0.2060136585365839  0.7490975609756063  0.8660404858299628
  0.6973151219512204  0.2401551219512186  0.2192364372469626
  0.9699970731707310  0.6975590243902445  0.7306801619433188
  0.0188562926829263  0.3713248780487817  0.4551595141700417
  0.9075756097560941  0.2073863414634118  0.0405857489878514
  0.7194292682926857  0.1351053658536614  0.4492421052631599
  0.5427999999999997  0.6325395121951232  0.7748963562753062
  0.6247473170731723  0.8206702439024411  0.2489327935222647
  0.7037834146341453  0.0326293658536585  0.7721368421052617
  0.6006965853658528  0.2784653658536556  0.6153902834008065
  0.8805453658536564  0.8699756097560964  0.0375877732793555
  0.2904253658536575  0.6073804878048747  0.3379570850202427
  0.2834673170731676  0.4693121951219510  0.8848582995951446
  0.0951906341463413  0.4324058536585369  0.9799352226720615
  0.1973453658536570  0.7130224390243924  0.4878947368421080
  0.9871512195121923  0.6211180487804882  0.4543886639676131
  0.3683463414634147  0.1054936585365880  0.8055910931174068
  0.3838146341463400  0.8876341463414619  0.2194736842105272
  0.4345941463414604  0.9120878048780483  0.8285748987854262
  0.1984829268292714  0.9073414634146317  0.4808793522267223
  0.8598760975609778  0.7368507317073139  0.5453522267206452
  0.0258568780487778  0.1954019512195089  0.5916372469635647
  0.4976565853658528  0.6160536585365861  0.3361668016194344
  0.3962058536585360  0.6168253658536571  0.9494736842105240
  0.1787053658536593  0.3882780487804851  0.1371295546558713
  0.1819073170731684  0.5566985365853654  0.7479919028340092
  0.7749736585365881  0.3741385365853631  0.0798227530364386
  0.7699180487804895  0.5672487804878017  0.8167449392712527
  0.0775025365853637  0.2436360975609730  0.9025506072874521
  0.9496282926829238  0.6521619512195116  0.2910056680161972
  0.0888147317073162  0.2143970731707299  0.1879489878542486
  0.7847170731707322  0.0470730731707292  0.9535708502024320
  0.8369434146341490  0.1225804878048748  0.6118048582995925
  0.4836819512195092  0.1772429268292655  0.4634267206477745
  0.6884175609756085  0.7229082926829236  0.0876194331983839
  0.8022029268292670  0.3994897560975588  0.7369748987854265
  0.4571765853658505  0.1855317073170752  0.1410307692307669
  0.5366000000000000  0.2212839024390263  0.8054874493927144
  0.5477765853658525  0.8529551219512186  0.6897230769230802
  0.4120292682926845  0.0078719219512209  0.0799140080971625
  0.2431024390243905  0.4299053658536565  0.4121757085020263
  0.5246536585365860  0.4964926829268279  0.6093433198380538
  0.7936604878048783  0.3428975609756080  0.3762469635627497
  0.0788989268292681  0.8998409756097558  0.7598761133603205
  0.7465775609756093  0.0224055609756064  0.2876639676113371
  0.0699047804878035  0.7574712195121975  0.0279150607287448
 
  0.00000000E+00  0.00000000E+00  0.00000000E+00
  0.00000000E+00  0.00000000E+00  0.00000000E+00
  0.00000000E+00  0.00000000E+00  0.00000000E+00
  0.00000000E+00  0.00000000E+00  0.00000000E+00
  0.00000000E+00  0.00000000E+00  0.00000000E+00
  0.00000000E+00  0.00000000E+00  0.00000000E+00
  0.00000000E+00  0.00000000E+00  0.00000000E+00
  0.00000000E+00  0.00000000E+00  0.00000000E+00
  0.00000000E+00  0.00000000E+00  0.00000000E+00
  0.00000000E+00  0.00000000E+00  0.00000000E+00
  0.00000000E+00  0.00000000E+00  0.00000000E+00
  0.00000000E+00  0.00000000E+00  0.00000000E+00
  0.00000000E+00  0.00000000E+00  0.00000000E+00
  0.00000000E+00  0.00000000E+00  0.00000000E+00
  0.00000000E+00  0.00000000E+00  0.00000000E+00
  0.00000000E+00  0.00000000E+00  0.00000000E+00
  0.00000000E+00  0.00000000E+00  0.00000000E+00
  0.00000000E+00  0.00000000E+00  0.00000000E+00
  0.00000000E+00  0.00000000E+00  0.00000000E+00
  0.00000000E+00  0.00000000E+00  0.00000000E+00
  0.00000000E+00  0.00000000E+00  0.00000000E+00
  0.00000000E+00  0.00000000E+00  0.00000000E+00
  0.00000000E+00  0.00000000E+00  0.00000000E+00
  0.00000000E+00  0.00000000E+00  0.00000000E+00
  0.00000000E+00  0.00000000E+00  0.00000000E+00
  0.00000000E+00  0.00000000E+00  0.00000000E+00
  0.00000000E+00  0.00000000E+00  0.00000000E+00
  0.00000000E+00  0.00000000E+00  0.00000000E+00
  0.00000000E+00  0.00000000E+00  0.00000000E+00
  0.00000000E+00  0.00000000E+00  0.00000000E+00
  0.00000000E+00  0.00000000E+00  0.00000000E+00
  0.00000000E+00  0.00000000E+00  0.00000000E+00
  0.00000000E+00  0.00000000E+00  0.00000000E+00
  0.00000000E+00  0.00000000E+00  0.00000000E+00
  0.00000000E+00  0.00000000E+00  0.00000000E+00
  0.00000000E+00  0.00000000E+00  0.00000000E+00
  0.00000000E+00  0.00000000E+00  0.00000000E+00
  0.00000000E+00  0.00000000E+00  0.00000000E+00
  0.00000000E+00  0.00000000E+00  0.00000000E+00
  0.00000000E+00  0.00000000E+00  0.00000000E+00
  0.00000000E+00  0.00000000E+00  0.00000000E+00
  0.00000000E+00  0.00000000E+00  0.00000000E+00
  0.00000000E+00  0.00000000E+00  0.00000000E+00
  0.00000000E+00  0.00000000E+00  0.00000000E+00
  0.00000000E+00  0.00000000E+00  0.00000000E+00
  0.00000000E+00  0.00000000E+00  0.00000000E+00
  0.00000000E+00  0.00000000E+00  0.00000000E+00
  0.00000000E+00  0.00000000E+00  0.00000000E+00
  0.00000000E+00  0.00000000E+00  0.00000000E+00
  0.00000000E+00  0.00000000E+00  0.00000000E+00
  0.00000000E+00  0.00000000E+00  0.00000000E+00
  0.00000000E+00  0.00000000E+00  0.00000000E+00
  0.00000000E+00  0.00000000E+00  0.00000000E+00
  0.00000000E+00  0.00000000E+00  0.00000000E+00
  0.00000000E+00  0.00000000E+00  0.00000000E+00
  0.00000000E+00  0.00000000E+00  0.00000000E+00
  0.00000000E+00  0.00000000E+00  0.00000000E+00
  0.00000000E+00  0.00000000E+00  0.00000000E+00
  0.00000000E+00  0.00000000E+00  0.00000000E+00
  0.00000000E+00  0.00000000E+00  0.00000000E+00
  0.00000000E+00  0.00000000E+00  0.00000000E+00
  0.00000000E+00  0.00000000E+00  0.00000000E+00
  0.00000000E+00  0.00000000E+00  0.00000000E+00
  0.00000000E+00  0.00000000E+00  0.00000000E+00
  0.00000000E+00  0.00000000E+00  0.00000000E+00
