New POSCAR file
1
10.25 0.0 0.0
0.0 10.25 0.0
0.0 0.0 12.35
Li P S Cl
30 5 25 5
Cartesian
6.4349 9.16607 0.0565896
7.50272 5.83961 7.55697
2.35744 1.7847 0.355511
1.5724 7.44374 2.54285
3.05985 2.1324 4.00536
2.04563 0.492977 8.1791
7.52496 5.7302 2.65805
5.23969 0.736137 3.72018
10.0711 9.55989 7.17212
9.62207 4.12468 2.80985
4.42925 9.90246 6.4947
9.12767 6.02097 0.105198
0.146631 3.73071 9.06733
3.03382 5.35808 7.40191
6.32665 2.35396 12.1789
8.73313 1.91514 10.224
6.39473 5.53503 12.2191
4.74883 4.14004 5.33964
4.87989 6.77151 1.82201
2.11164 7.67825 10.6956
7.14748 2.46159 2.70757
9.94247 7.14998 9.0239
0.193277 3.80608 5.62122
9.30265 2.12571 0.501234
7.37415 1.38483 5.54814
5.5637 6.48353 9.56997
6.40366 8.41187 3.07432
7.21378 0.334451 9.53589
6.15714 2.85427 7.60007
9.02559 8.91725 0.464209
2.97686 6.22565 4.17377
2.90554 4.81045 10.928
0.975704 4.43216 12.1022
2.02279 7.30848 6.0255
10.1183 6.36646 5.6117
3.77555 1.08131 9.94905
3.9341 9.09825 2.7105
4.45459 9.3489 10.2329
2.03445 9.30025 5.93886
8.81373 7.55272 6.7351
0.265033 2.00287 7.30672
5.10098 6.31455 4.15166
4.06111 6.32246 11.726
1.83173 3.97985 1.69355
1.86455 5.70616 9.2377
7.94348 3.83492 0.985811
7.89166 5.8143 10.0868
0.794401 2.49727 11.1465
9.73369 6.68466 3.59392
0.910351 2.19757 2.32117
8.04335 0.482499 11.7766
8.57867 1.25645 7.55579
4.95774 1.81674 5.72332
7.05628 7.40981 1.0821
8.22258 4.09477 9.10164
4.68606 1.9017 1.74173
5.50015 2.26816 9.94777
5.61471 8.74279 8.51808
4.2233 0.0806872 0.986938
2.4918 4.40653 5.09037
5.3777 5.08905 7.52539
8.13502 3.5147 4.64665
0.808714 9.22337 9.38447
7.65242 0.229657 3.55265
0.716524 7.76408 0.344751
