New POSCAR file                         
   1.00000000000000     
    16.0260819999999988    0.0000000000000000    0.0000000000000000
     0.0000000000000000   16.1000000000000014    0.0000000000000000
     0.0000000000000000    0.0000000000000000   16.4253670000000014
   Li   P    S    Cl
    96    16    80    16
Direct
  0.7434318631341057  0.8309503105590039  0.1739534952247936
  0.5872757920494820  0.6716273291925461  0.9980903318629046
  0.6709624972591541  0.6356956521739150  0.1882350634844272
  0.8088065442320840  0.9089627329192567  0.0201735522865363
  0.5851673540669537  0.7880621118012385  0.2860124830087543
  0.9139102121154750  0.7310807453416146  0.8993710764575269
  0.2352072078503014  0.0336884472049661  0.0473217432523754
  0.2084963748469519  0.8601055900621120  0.2785484184310789
  0.0913417265679755  0.0241895031055890  0.3473785395480036
  0.2252297223987725  0.7255838509316774  0.0694005802123030
  0.1067509825545656  0.6770124223602494  0.8952189622307998
  0.3114229666365134  0.8545155279503120  0.4393058614763348
  0.3447536334832151  0.5052428571428607  0.6157548869379923
  0.5458620516230965  0.8124720496894398  0.5403787933627271
  0.6914603332243061  0.8627267080745327  0.7670026490123476
  0.3613085219456664  0.6228571428571428  0.4327684124196409
  0.7123575182006405  0.5251875776397483  0.7435389419304883
  0.1576317904775451  0.7461242236024859  0.6351395375214466
  0.0008084446341883  0.9080807453416142  0.8644555704600094
  0.9197631710607723  0.4972018633540358  0.9715277594710656
  0.1723190983298366  0.4623621118012409  0.6795525482018121
  0.5159944894828286  0.8748881987577661  0.8790062346856544
  0.0135678826552876  0.6324347826086978  0.7372194484299825
  0.8605284810098937  0.5482055900621106  0.8497831433538110
  0.3950610011854394  0.5019403726708092  0.8677857852430293
  0.0683267438666562  0.5150000000000006  0.8592136784523561
  0.2637119914898705  0.6012409937888208  0.8051083424802599
  0.4277889006183813  0.7031925465838498  0.9054287797648612
  0.0539458115838940  0.3096267080745321  0.6876436916143192
  0.5221088972338990  0.6294409937888190  0.7327081337056285
  0.2679201316953197  0.2480838509316783  0.0363773911414000
  0.3669586864712144  0.1666726708074506  0.1379402968591208
  0.4729353063337598  0.0712186335403757  0.0249627299043027
  0.4419102560438688  0.3216795031055923  0.0638408870864211
  0.6264787613092224  0.3894074534161476  0.1765841822590630
  0.1015182625422710  0.1774720496894417  0.1390221600528037
  0.8186779526025134  0.1109099378882021  0.4910751765850989
  0.8016806603136075  0.3055291925465866  0.6676989317803361
  0.6068289180100308  0.0138608695652209  0.9197724470935711
  0.5598654742937157  0.2994962732919220  0.6490205059040690
  0.8597048236743063  0.1766944099378875  0.7970841686520629
  0.7562921492601902  0.3144739130434786  0.8831583489123886
  0.4721590716932553  0.2327372670807435  0.3610525110336980
  0.2475333646739131  0.0061956770186313  0.7064560566591922
  0.3475390928362927  0.0826118012422370  0.3252024749279556
  0.9812816382694152  0.1725447204968944  0.6239556169429861
  0.4064443199529393  0.0474185093167705  0.5165832824313767
  0.9431375678721707  0.3395645962732914  0.4047045037106329
  0.3851471619825730  0.4310770186335375  0.3907291690955788
  0.0126082594610466  0.2184782608695670  0.2554408677748299
  0.1936000327466161  0.2596869565217403  0.3051596959751350
  0.9625122347433361  0.3838478260869564  0.1943006813789907
  0.1238637116670205  0.4608223602484500  0.2978307881948723
  0.2996677541023445  0.4736354037267105  0.2166125116108546
  0.7870794620918602  0.6091173913043448  0.2945182290295278
  0.1047105587004964  0.5633565217391308  0.0967576553997276
  0.8002642192895308  0.4917937888198765  0.1027678711836373
  0.1024174218002898  0.7021180124223605  0.2836295834364009
  0.9601660593025798  0.6638695652173894  0.0346160301928080
  0.1084282484015731  0.4455590062111767  0.4379780372639459
  0.4317249843099518  0.0275939751552770  0.7579495788435011
  0.3468564556202836  0.9325465838509288  0.9132824855602948
  0.3817645510612024  0.8685031055900652  0.6399796120232821
  0.0800763405553511  0.8151242236024814  0.7409210399986819
  0.2194978161224910  0.8463913043478257  0.8724797442882064
  0.3127670256523061  0.7632422360248441  0.7508203621873406
  0.0515379242412450  0.8281180124223582  0.4797013059129824
  0.8709177951292162  0.9403913043478269  0.4951511890114872
  0.9033586624603558  0.7845217391304331  0.2754665999243713
  0.8992528554390304  0.7353229813664584  0.5095271235035383
  0.7866801130806635  0.7820496894409956  0.4015076192818086
  0.7432072293153098  0.1303242236024857  0.6801552744605317
  0.9941356845671976  0.3219372670807488  0.8531559751450288
  0.3712579281698396  0.1703279503105577  0.8652287647514996
  0.1253431749569245  0.1537658385093152  0.8227578720158917
  0.2757979149239347  0.3338453416149036  0.7885851195897189
  0.1091564363641737  0.8543105590062083  0.0600418852132805
  0.2058120007123421  0.4633403726708067  0.9486180734957088
  0.5777151271283927  0.4194583850931650  0.4221786946982675
  0.5112016773656833  0.5572298136645983  0.1079823665431618
  0.7168813937180687  0.2428136645962766  0.2962740497670495
  0.5286095503567267  0.5968869565217361  0.3062707822601496
  0.4278687704206163  0.7159503105590090  0.2479597563938754
  0.7642791294840521  0.4359782608695681  0.3564468300769192
  0.8123694861913222  0.0352543478260898  0.2824630950407396
  0.5097178461959686  0.8792857142857144  0.1383189794176261
  0.6578276586878786  0.6953291925465805  0.4091713749835861
  0.6778200685607345  0.9321490683229783  0.3327213328018814
  0.4867808613483930  0.0270728571428549  0.2541081730472143
  0.5203342900654064  0.9379689440993815  0.3797437220124209
  0.3807118920270085  0.2400670807453409  0.7306138121601791
  0.8441926105207713  0.5392298136645977  0.5604909771574640
  0.5628038094401333  0.0953490683229816  0.7336091790216912
  0.2155168056671641  0.2048670807453448  0.6330025989678063
  0.5725529171758907  0.1100111801242249  0.4753568063349789
  0.6360756172344537  0.1792409937888166  0.8454605610943133
  0.6948922387892438  0.9207453416149036  0.5798871952145745
  0.6292866840441746  0.6848198757763981  0.6067736568686684
  0.3531430826324211  0.2972540372670807  0.2242099065427254
  0.2103414920752300  0.9663291925465813  0.5278944452200065
  0.9443044157642504  0.5420726708074568  0.4035160979964729
  0.8893128089572997  0.4334720496894420  0.7334630635650328
  0.5184024392237632  0.3333093167701833  0.5831705312885873
  0.1085230937917316  0.6006130434782619  0.5203713256452644
  0.6003794314792614  0.1092875776397548  0.2489874351057111
  0.7883336675801331  0.0031618509316758  0.8531925040091934
  0.9233635519898158  0.8571180124223616  0.1302856733733861
  0.3415488576683927  0.5361267080745336  0.0550076597984059
  0.8396562553467533  0.2529267080745328  0.1794419570655563
  0.6675430713508135  0.4819459627329223  0.9765809190138626
  0.2757742035763968  0.6615962732919272  0.2545075552954188
  0.5051771231421398  0.4164447204968909  0.8579047274864564
  0.6955910995588326  0.0516678881987573  0.5642601471248696
  0.6554190849641230  0.8782360248447176  0.4619470603000835
  0.6049394980008245  0.8819999999999979  0.6531239149785790
  0.7941179884141363  0.8685714285714283  0.6289661594775922
  0.6813206122369806  0.6744906832298128  0.7151560144744380
  0.7192275691588250  0.7341552795031063  0.2866243414835097
  0.4980786944681768  0.9589378881987543  0.6379096430539448
  0.5018319511905673  0.6893416149068301  0.4314771170714167
  0.4319833132015702  0.3954472049689457  0.1892024695703896
  0.3338570213231122  0.2859701863354047  0.3497815299956457
  0.1188181865037237  0.1367236024844729  0.2624410157776111
  0.2317260076417895  0.3384173913043469  0.1819021760670552
  0.2451316547612805  0.9714223602484466  0.4046040493341820
  0.2830567071852030  0.0460844720496922  0.5751232225130778
  0.2717289228895723  0.8397701863354001  0.5726209953177914
  0.0849246871443654  0.9454720496894424  0.5189296531395584
  0.9009937675347004  0.4519422360248413  0.4302893201716600
  0.6574283096766891  0.5215192546583864  0.3118986625991340
  0.0745085417633575  0.5948875776397529  0.3941908877895983
  0.6821629890574599  0.3074714285714251  0.4281298554851176
  0.8731890926303763  0.4072689440993784  0.8530098596883704
  0.0278522847942497  0.4346130434782580  0.7613284987787452
  0.8630680911279498  0.5619844720496872  0.7058959474086635
  0.6798542525865017  0.4811155279503083  0.5481594414298314
  0.5661677008766048  0.5814248447204946  0.5872264528396869
  0.4825384020873003  0.4253173913043469  0.5236966699130647
  0.4235545531340748  0.2345136645962711  0.5833629166398566
  0.5745165911418653  0.2555496894409970  0.4751790325293825
  0.0257407892958526  0.6936273291925446  0.5705425029468145
  0.3479184743969270  0.6404968944099352  0.5843004908200840
  0.0640761728287700  0.5022863354037241  0.5701668644603188
  0.1695373828737416  0.7154285714285677  0.7684698917229653
  0.4674043225287363  0.0798273291925469  0.3862988266867973
  0.6920531169127955  0.0964093167701847  0.1434805079241173
  0.6813518113784767  0.0899577639751570  0.3575640045059600
  0.5834776085633422  0.2452925465838476  0.2567029400317224
  0.7465642569406512  0.0977012422360275  0.9382073472087384
  0.6820569119763675  0.0013353043478261  0.7899793045720074
  0.7965577612793950  0.8906956521739104  0.8922296835133139
  0.8762403686690234  0.0364019254658388  0.7745336831743259
  0.8319687868812835  0.9397329192546593  0.1586917357767419
  0.9197070126060751  0.5768534161490706  0.2272801575757768
  0.9802395869433340  0.9019627329192517  0.0321782155613306
  0.8378092661699839  0.7671925465838498  0.0646950536934696
  0.3621271874186078  0.5760192546583838  0.2853105200023833
  0.4418010590486148  0.5622869565217385  0.9848181778830281
  0.2382204209363223  0.6121391304347839  0.9796249910275989
  0.3302248172697446  0.4092173913043453  0.0088787057238946
  0.8527224558067275  0.1978534161490657  0.2924543482042168
  0.7316448274756127  0.2121012422360238  0.1131664211825552
  0.9546500510854727  0.2609627329192534  0.1215059608713744
  0.8131369850722123  0.3711248447204980  0.2326243304030911
  0.6360381782646556  0.5049875776397528  0.1017048812364436
  0.5946362935120391  0.3808273291925488  0.9468707761598267
  0.7832045287176257  0.4098639751552824  0.0012034616943382
  0.7231524211594547  0.5695701863354046  0.9194863043242805
  0.1694862162816833  0.5886509316770159  0.2181132391136202
  0.2934959399309207  0.7655714285714268  0.1882989889967135
  0.4521460703870090  0.7854037267080756  0.3635395178689151
  0.2470441621351966  0.7095155279503089  0.3720470903328987
  0.5011904968413390  0.2819329192546576  0.7849626738933750
  0.7087696169282083  0.4257968944099346  0.6477176430821885
  0.5089522192635698  0.0954223602484490  0.8626473916838506
  0.5606760279898708  0.4692397515527915  0.7633314981637866
  0.5364598783408212  0.7014285714285720  0.1707669606408189
  0.2260739711677502  0.8900931677018633  0.9988330854342564
  0.4291947339343452  0.7294720496894413  0.6401013749038285
  0.9723025253458673  0.6076559006211184  0.9126858474456014
  0.2419986369719069  0.4712534161490680  0.8053336038092809
  0.3852145521282111  0.1821335403726678  0.0018866732171006
  0.7297167205309449  0.2414962732919221  0.7590697973445586
  0.2541843976587685  0.1729223602484495  0.7697179612485954
  0.0530329871019006  0.3575981366459615  0.3419783557956393
  0.9731199428531596  0.5164788819875810  0.1210560470277500
  0.3368671144949857  0.9081304347826062  0.7778578098133195
  0.9137292570947793  0.8262422360248465  0.3978821295134551
  0.0044531969822685  0.2145795031055897  0.7945941177448290
  0.5293215147657406  0.4388267080745365  0.2510476630446092
  0.5758263311020144  0.9167080745341636  0.2383264860992114
  0.4709990876123058  0.1283204968944105  0.6239799695190982
  0.5377016041724971  0.9425217391304344  0.0063944385534853
  0.3757543484427472  0.0278100621118043  0.1619318460281605
  0.2432821696531917  0.4443602484472038  0.4336511933036249
  0.5407847033354756  0.7701801242236002  0.8917000149829235
  0.3845593701567225  0.6422857142857126  0.7953673120363121
  0.1552356964103865  0.1624118012422358  0.9943582995740670
  0.8682221893036584  0.2088062111801250  0.5639131229153023
  0.0936329915196978  0.2492378881987563  0.5800844510810634
  0.0835825000770640  0.7261055900621116  0.0618439758454130
  0.0688265541134783  0.8520993788819879  0.2685510771235755
  0.0995427329025276  0.9450062111801216  0.7776386366283319
  0.9537140768404910  0.7996645962732885  0.7663086005932129
  0.0639838233699308  0.4272472049689426  0.9642950443664375
  0.7786681735436005  0.6640434782608722  0.4965685089410812
  0.9022354933663763  0.0120840993788818  0.3898683055301007
  0.2627011393052925  0.3840788819875769  0.6289722476216184
 
  0.00000000E+00  0.00000000E+00  0.00000000E+00
  0.00000000E+00  0.00000000E+00  0.00000000E+00
  0.00000000E+00  0.00000000E+00  0.00000000E+00
  0.00000000E+00  0.00000000E+00  0.00000000E+00
  0.00000000E+00  0.00000000E+00  0.00000000E+00
  0.00000000E+00  0.00000000E+00  0.00000000E+00
  0.00000000E+00  0.00000000E+00  0.00000000E+00
  0.00000000E+00  0.00000000E+00  0.00000000E+00
  0.00000000E+00  0.00000000E+00  0.00000000E+00
  0.00000000E+00  0.00000000E+00  0.00000000E+00
  0.00000000E+00  0.00000000E+00  0.00000000E+00
  0.00000000E+00  0.00000000E+00  0.00000000E+00
  0.00000000E+00  0.00000000E+00  0.00000000E+00
  0.00000000E+00  0.00000000E+00  0.00000000E+00
  0.00000000E+00  0.00000000E+00  0.00000000E+00
  0.00000000E+00  0.00000000E+00  0.00000000E+00
  0.00000000E+00  0.00000000E+00  0.00000000E+00
  0.00000000E+00  0.00000000E+00  0.00000000E+00
  0.00000000E+00  0.00000000E+00  0.00000000E+00
  0.00000000E+00  0.00000000E+00  0.00000000E+00
  0.00000000E+00  0.00000000E+00  0.00000000E+00
  0.00000000E+00  0.00000000E+00  0.00000000E+00
  0.00000000E+00  0.00000000E+00  0.00000000E+00
  0.00000000E+00  0.00000000E+00  0.00000000E+00
  0.00000000E+00  0.00000000E+00  0.00000000E+00
  0.00000000E+00  0.00000000E+00  0.00000000E+00
  0.00000000E+00  0.00000000E+00  0.00000000E+00
  0.00000000E+00  0.00000000E+00  0.00000000E+00
  0.00000000E+00  0.00000000E+00  0.00000000E+00
  0.00000000E+00  0.00000000E+00  0.00000000E+00
  0.00000000E+00  0.00000000E+00  0.00000000E+00
  0.00000000E+00  0.00000000E+00  0.00000000E+00
  0.00000000E+00  0.00000000E+00  0.00000000E+00
  0.00000000E+00  0.00000000E+00  0.00000000E+00
  0.00000000E+00  0.00000000E+00  0.00000000E+00
  0.00000000E+00  0.00000000E+00  0.00000000E+00
  0.00000000E+00  0.00000000E+00  0.00000000E+00
  0.00000000E+00  0.00000000E+00  0.00000000E+00
  0.00000000E+00  0.00000000E+00  0.00000000E+00
  0.00000000E+00  0.00000000E+00  0.00000000E+00
  0.00000000E+00  0.00000000E+00  0.00000000E+00
  0.00000000E+00  0.00000000E+00  0.00000000E+00
  0.00000000E+00  0.00000000E+00  0.00000000E+00
  0.00000000E+00  0.00000000E+00  0.00000000E+00
  0.00000000E+00  0.00000000E+00  0.00000000E+00
  0.00000000E+00  0.00000000E+00  0.00000000E+00
  0.00000000E+00  0.00000000E+00  0.00000000E+00
  0.00000000E+00  0.00000000E+00  0.00000000E+00
  0.00000000E+00  0.00000000E+00  0.00000000E+00
  0.00000000E+00  0.00000000E+00  0.00000000E+00
  0.00000000E+00  0.00000000E+00  0.00000000E+00
  0.00000000E+00  0.00000000E+00  0.00000000E+00
  0.00000000E+00  0.00000000E+00  0.00000000E+00
  0.00000000E+00  0.00000000E+00  0.00000000E+00
  0.00000000E+00  0.00000000E+00  0.00000000E+00
  0.00000000E+00  0.00000000E+00  0.00000000E+00
  0.00000000E+00  0.00000000E+00  0.00000000E+00
  0.00000000E+00  0.00000000E+00  0.00000000E+00
  0.00000000E+00  0.00000000E+00  0.00000000E+00
  0.00000000E+00  0.00000000E+00  0.00000000E+00
  0.00000000E+00  0.00000000E+00  0.00000000E+00
  0.00000000E+00  0.00000000E+00  0.00000000E+00
  0.00000000E+00  0.00000000E+00  0.00000000E+00
  0.00000000E+00  0.00000000E+00  0.00000000E+00
  0.00000000E+00  0.00000000E+00  0.00000000E+00
  0.00000000E+00  0.00000000E+00  0.00000000E+00
  0.00000000E+00  0.00000000E+00  0.00000000E+00
  0.00000000E+00  0.00000000E+00  0.00000000E+00
  0.00000000E+00  0.00000000E+00  0.00000000E+00
  0.00000000E+00  0.00000000E+00  0.00000000E+00
  0.00000000E+00  0.00000000E+00  0.00000000E+00
  0.00000000E+00  0.00000000E+00  0.00000000E+00
  0.00000000E+00  0.00000000E+00  0.00000000E+00
  0.00000000E+00  0.00000000E+00  0.00000000E+00
  0.00000000E+00  0.00000000E+00  0.00000000E+00
  0.00000000E+00  0.00000000E+00  0.00000000E+00
  0.00000000E+00  0.00000000E+00  0.00000000E+00
  0.00000000E+00  0.00000000E+00  0.00000000E+00
  0.00000000E+00  0.00000000E+00  0.00000000E+00
  0.00000000E+00  0.00000000E+00  0.00000000E+00
  0.00000000E+00  0.00000000E+00  0.00000000E+00
  0.00000000E+00  0.00000000E+00  0.00000000E+00
  0.00000000E+00  0.00000000E+00  0.00000000E+00
  0.00000000E+00  0.00000000E+00  0.00000000E+00
  0.00000000E+00  0.00000000E+00  0.00000000E+00
  0.00000000E+00  0.00000000E+00  0.00000000E+00
  0.00000000E+00  0.00000000E+00  0.00000000E+00
  0.00000000E+00  0.00000000E+00  0.00000000E+00
  0.00000000E+00  0.00000000E+00  0.00000000E+00
  0.00000000E+00  0.00000000E+00  0.00000000E+00
  0.00000000E+00  0.00000000E+00  0.00000000E+00
  0.00000000E+00  0.00000000E+00  0.00000000E+00
  0.00000000E+00  0.00000000E+00  0.00000000E+00
  0.00000000E+00  0.00000000E+00  0.00000000E+00
  0.00000000E+00  0.00000000E+00  0.00000000E+00
  0.00000000E+00  0.00000000E+00  0.00000000E+00
  0.00000000E+00  0.00000000E+00  0.00000000E+00
  0.00000000E+00  0.00000000E+00  0.00000000E+00
  0.00000000E+00  0.00000000E+00  0.00000000E+00
  0.00000000E+00  0.00000000E+00  0.00000000E+00
  0.00000000E+00  0.00000000E+00  0.00000000E+00
  0.00000000E+00  0.00000000E+00  0.00000000E+00
  0.00000000E+00  0.00000000E+00  0.00000000E+00
  0.00000000E+00  0.00000000E+00  0.00000000E+00
  0.00000000E+00  0.00000000E+00  0.00000000E+00
  0.00000000E+00  0.00000000E+00  0.00000000E+00
  0.00000000E+00  0.00000000E+00  0.00000000E+00
  0.00000000E+00  0.00000000E+00  0.00000000E+00
  0.00000000E+00  0.00000000E+00  0.00000000E+00
  0.00000000E+00  0.00000000E+00  0.00000000E+00
  0.00000000E+00  0.00000000E+00  0.00000000E+00
  0.00000000E+00  0.00000000E+00  0.00000000E+00
  0.00000000E+00  0.00000000E+00  0.00000000E+00
  0.00000000E+00  0.00000000E+00  0.00000000E+00
  0.00000000E+00  0.00000000E+00  0.00000000E+00
  0.00000000E+00  0.00000000E+00  0.00000000E+00
  0.00000000E+00  0.00000000E+00  0.00000000E+00
  0.00000000E+00  0.00000000E+00  0.00000000E+00
  0.00000000E+00  0.00000000E+00  0.00000000E+00
  0.00000000E+00  0.00000000E+00  0.00000000E+00
  0.00000000E+00  0.00000000E+00  0.00000000E+00
  0.00000000E+00  0.00000000E+00  0.00000000E+00
  0.00000000E+00  0.00000000E+00  0.00000000E+00
  0.00000000E+00  0.00000000E+00  0.00000000E+00
  0.00000000E+00  0.00000000E+00  0.00000000E+00
  0.00000000E+00  0.00000000E+00  0.00000000E+00
  0.00000000E+00  0.00000000E+00  0.00000000E+00
  0.00000000E+00  0.00000000E+00  0.00000000E+00
  0.00000000E+00  0.00000000E+00  0.00000000E+00
  0.00000000E+00  0.00000000E+00  0.00000000E+00
  0.00000000E+00  0.00000000E+00  0.00000000E+00
  0.00000000E+00  0.00000000E+00  0.00000000E+00
  0.00000000E+00  0.00000000E+00  0.00000000E+00
  0.00000000E+00  0.00000000E+00  0.00000000E+00
  0.00000000E+00  0.00000000E+00  0.00000000E+00
  0.00000000E+00  0.00000000E+00  0.00000000E+00
  0.00000000E+00  0.00000000E+00  0.00000000E+00
  0.00000000E+00  0.00000000E+00  0.00000000E+00
  0.00000000E+00  0.00000000E+00  0.00000000E+00
  0.00000000E+00  0.00000000E+00  0.00000000E+00
  0.00000000E+00  0.00000000E+00  0.00000000E+00
  0.00000000E+00  0.00000000E+00  0.00000000E+00
  0.00000000E+00  0.00000000E+00  0.00000000E+00
  0.00000000E+00  0.00000000E+00  0.00000000E+00
  0.00000000E+00  0.00000000E+00  0.00000000E+00
  0.00000000E+00  0.00000000E+00  0.00000000E+00
  0.00000000E+00  0.00000000E+00  0.00000000E+00
  0.00000000E+00  0.00000000E+00  0.00000000E+00
  0.00000000E+00  0.00000000E+00  0.00000000E+00
  0.00000000E+00  0.00000000E+00  0.00000000E+00
  0.00000000E+00  0.00000000E+00  0.00000000E+00
  0.00000000E+00  0.00000000E+00  0.00000000E+00
  0.00000000E+00  0.00000000E+00  0.00000000E+00
  0.00000000E+00  0.00000000E+00  0.00000000E+00
  0.00000000E+00  0.00000000E+00  0.00000000E+00
  0.00000000E+00  0.00000000E+00  0.00000000E+00
  0.00000000E+00  0.00000000E+00  0.00000000E+00
  0.00000000E+00  0.00000000E+00  0.00000000E+00
  0.00000000E+00  0.00000000E+00  0.00000000E+00
  0.00000000E+00  0.00000000E+00  0.00000000E+00
  0.00000000E+00  0.00000000E+00  0.00000000E+00
  0.00000000E+00  0.00000000E+00  0.00000000E+00
  0.00000000E+00  0.00000000E+00  0.00000000E+00
  0.00000000E+00  0.00000000E+00  0.00000000E+00
  0.00000000E+00  0.00000000E+00  0.00000000E+00
  0.00000000E+00  0.00000000E+00  0.00000000E+00
  0.00000000E+00  0.00000000E+00  0.00000000E+00
  0.00000000E+00  0.00000000E+00  0.00000000E+00
  0.00000000E+00  0.00000000E+00  0.00000000E+00
  0.00000000E+00  0.00000000E+00  0.00000000E+00
  0.00000000E+00  0.00000000E+00  0.00000000E+00
  0.00000000E+00  0.00000000E+00  0.00000000E+00
  0.00000000E+00  0.00000000E+00  0.00000000E+00
  0.00000000E+00  0.00000000E+00  0.00000000E+00
  0.00000000E+00  0.00000000E+00  0.00000000E+00
  0.00000000E+00  0.00000000E+00  0.00000000E+00
  0.00000000E+00  0.00000000E+00  0.00000000E+00
  0.00000000E+00  0.00000000E+00  0.00000000E+00
  0.00000000E+00  0.00000000E+00  0.00000000E+00
  0.00000000E+00  0.00000000E+00  0.00000000E+00
  0.00000000E+00  0.00000000E+00  0.00000000E+00
  0.00000000E+00  0.00000000E+00  0.00000000E+00
  0.00000000E+00  0.00000000E+00  0.00000000E+00
  0.00000000E+00  0.00000000E+00  0.00000000E+00
  0.00000000E+00  0.00000000E+00  0.00000000E+00
  0.00000000E+00  0.00000000E+00  0.00000000E+00
  0.00000000E+00  0.00000000E+00  0.00000000E+00
  0.00000000E+00  0.00000000E+00  0.00000000E+00
  0.00000000E+00  0.00000000E+00  0.00000000E+00
  0.00000000E+00  0.00000000E+00  0.00000000E+00
  0.00000000E+00  0.00000000E+00  0.00000000E+00
  0.00000000E+00  0.00000000E+00  0.00000000E+00
  0.00000000E+00  0.00000000E+00  0.00000000E+00
  0.00000000E+00  0.00000000E+00  0.00000000E+00
  0.00000000E+00  0.00000000E+00  0.00000000E+00
  0.00000000E+00  0.00000000E+00  0.00000000E+00
  0.00000000E+00  0.00000000E+00  0.00000000E+00
  0.00000000E+00  0.00000000E+00  0.00000000E+00
  0.00000000E+00  0.00000000E+00  0.00000000E+00
  0.00000000E+00  0.00000000E+00  0.00000000E+00
  0.00000000E+00  0.00000000E+00  0.00000000E+00
  0.00000000E+00  0.00000000E+00  0.00000000E+00
  0.00000000E+00  0.00000000E+00  0.00000000E+00
  0.00000000E+00  0.00000000E+00  0.00000000E+00
  0.00000000E+00  0.00000000E+00  0.00000000E+00
  0.00000000E+00  0.00000000E+00  0.00000000E+00
  0.00000000E+00  0.00000000E+00  0.00000000E+00
  0.00000000E+00  0.00000000E+00  0.00000000E+00
