New POSCAR file
1
16.026082 0.0 0.0
0.0 16.1 0.0
0.0 0.0 16.425367
Li P S Cl
96 16 80 16
Cartesian
11.9143 13.3783 2.85725
9.41173 10.8132 16.394
10.7529 10.2347 3.09183
12.962 14.6343 0.331358
9.37794 12.6878 4.69786
14.6464 11.7704 14.7725
3.76945 0.542384 0.777277
3.34138 13.8477 4.57526
1.46385 0.389451 5.70582
3.60955 11.6819 1.13993
1.7108 10.8999 14.7043
4.99089 13.7577 7.21576
5.52505 8.13441 10.114
8.74803 13.0808 8.87592
11.0814 13.8899 12.5983
5.79036 10.028 7.10838
11.4163 8.45552 12.2129
2.52622 12.0126 10.4324
0.0129562 14.6201 14.199
14.7402 8.00495 15.9577
2.7616 7.44403 11.1619
8.26937 14.0857 14.438
0.21744 10.1822 12.1091
13.7909 8.82611 13.958
6.33128 8.08124 14.2537
1.09501 8.2915 14.1129
4.22627 9.67998 13.2242
6.85578 11.3214 14.872
0.86454 4.98499 11.2948
8.36736 10.134 12.035
4.29371 3.99415 0.597512
5.88091 2.68343 2.26572
7.5793 1.14662 0.410022
7.08209 5.17904 1.04861
10.04 6.26946 2.90046
1.62694 2.8573 2.28349
13.1202 1.78565 8.06609
12.8478 4.91902 10.9672
9.72509 0.22316 15.1076
8.97245 4.82189 10.6604
13.7777 2.84478 13.0924
12.1204 5.06303 14.5062
7.56686 3.74707 5.93042
3.96699 0.0997504 11.6038
5.56969 1.33005 5.34157
15.7261 2.77797 10.2487
6.51371 0.763438 8.48507
15.1148 5.46699 6.64742
6.1724 6.94034 6.41787
0.202061 3.5175 4.19571
3.10265 4.18096 5.01236
15.4253 6.17995 3.19146
1.98505 7.41924 4.89198
4.8025 7.62553 3.55794
12.6138 9.80679 4.83757
1.6781 9.07004 1.58928
12.8251 7.91788 1.688
1.64135 11.3041 4.65872
15.3877 10.6883 0.568581
1.73768 7.1735 7.19395
6.91886 0.444263 12.4496
5.55875 15.014 15.001
6.11819 13.9829 10.5119
1.28331 13.1235 12.1699
3.51769 13.6269 14.3308
5.01243 12.2882 12.3325
0.825951 13.3327 7.87927
13.9574 15.1403 8.13304
14.4773 12.6308 4.52464
14.4115 11.8387 8.36917
12.6074 12.591 6.59491
11.9107 2.09822 11.1718
15.9321 5.18319 14.0134
5.94981 2.74228 14.2117
2.00876 2.47563 13.5141
4.41996 5.37491 12.9528
1.74935 13.7544 0.98621
3.29836 7.45978 15.5814
9.25851 6.75328 6.93444
8.19256 8.9714 1.77365
11.4888 3.9093 4.86641
8.47154 9.60988 5.03061
6.85706 11.5268 4.07283
12.2484 7.01925 5.85477
13.0191 0.567595 4.63956
8.16878 14.1565 2.27194
10.5424 11.1948 6.72079
10.8628 15.0076 5.46507
7.80119 0.435873 4.17382
8.33892 15.1013 6.23743
6.10132 3.86508 12.0006
13.5291 8.6816 9.20627
9.01954 1.53512 12.0498
3.45389 3.29836 10.3973
9.17578 1.77118 7.80791
10.1938 2.88578 13.887
11.1364 14.824 9.52486
10.085 11.0256 9.96648
5.6595 4.78579 3.68273
3.37095 15.5579 8.67086
15.1335 8.72737 6.6279
14.2522 6.9789 12.0474
8.30796 5.36628 9.57879
1.7392 9.66987 8.54729
9.62173 1.75953 4.08971
12.6339 0.0509058 14.014
14.7979 13.7996 2.13999
5.47369 8.63164 0.903521
13.4564 4.07212 2.9474
10.6981 7.75933 16.0407
4.41958 10.6517 4.18038
8.09601 6.70476 14.0914
11.1476 0.831853 9.26818
10.5038 14.1396 7.58765
9.69481 14.2002 10.7278
12.7266 13.984 10.331
10.9189 10.8593 11.7467
11.5264 11.8199 4.70791
7.98225 15.4389 10.4779
8.0424 11.0984 7.08717
6.923 6.3667 3.10772
5.35042 4.60412 5.74529
1.90419 2.20125 4.31069
3.71366 5.44852 2.98781
3.9285 15.6399 6.64577
4.53629 0.74196 9.44661
4.35475 13.5203 9.40551
1.36101 15.2221 8.52361
14.4394 7.27627 7.06766
10.536 8.39646 5.12305
1.19408 9.57769 6.47473
10.9324 4.95029 7.03219
13.9938 6.55703 14.011
0.446363 6.99727 12.5051
13.8316 9.04795 11.5946
10.8954 7.74596 9.00372
9.07345 9.36094 9.64541
7.7332 6.84761 8.60191
6.78792 3.77567 9.58195
9.20725 4.11435 7.80499
0.412524 11.1674 9.37137
5.57577 10.312 9.59735
1.02689 8.08681 9.3652
2.71702 11.5184 12.6224
7.49066 1.28522 6.3451
11.0909 1.55219 2.35672
10.9194 1.44832 5.87312
9.35086 3.94921 4.21644
11.9645 1.57299 15.4104
10.9307 0.0214984 12.9757
12.7657 14.3402 14.6552
14.0427 0.586071 12.722
13.3332 15.1297 2.60657
14.7393 9.28734 3.73316
15.7094 14.5216 0.528539
13.4268 12.3518 1.06264
5.80348 9.27391 4.68633
7.08034 9.05282 16.176
3.81774 9.85544 16.0907
5.29221 6.5884 0.145836
13.6658 3.18544 4.80367
11.7254 3.41483 1.8588
15.2993 4.2015 1.99578
13.0314 5.97511 3.82094
10.1932 8.1303 1.67054
9.52969 6.13132 15.5527
12.5517 6.59881 0.0197673
11.5893 9.17008 15.1029
2.7162 9.47728 3.58259
4.70359 12.3257 3.09288
7.24613 12.645 5.97127
3.95915 11.4232 6.11101
8.03212 4.53912 12.8933
11.3588 6.85533 10.639
8.15651 1.5363 14.1693
8.98544 7.55476 12.538
8.59735 11.293 2.80491
3.62308 14.3305 16.4062
6.87831 11.7445 10.5139
15.5822 9.78326 14.9912
3.87829 7.58718 13.2279
6.17348 2.93235 0.0309893
11.6945 3.88809 12.468
4.07358 2.78405 12.6429
0.849911 5.75733 5.61712
15.5953 8.31531 1.98839
5.39866 14.6209 12.7766
14.6435 13.3025 6.53536
0.0713673 3.45473 13.0515
8.48295 7.06511 4.12355
9.22824 14.759 3.9146
7.54827 2.06596 10.2491
8.61725 15.1746 0.105031
6.02187 0.447742 2.65979
3.89886 7.1542 7.12288
8.66666 12.3999 14.6465
6.16298 10.3408 13.0642
2.48782 2.61483 16.3327
13.9142 3.36178 9.26248
1.50057 4.01273 9.5281
1.3395 11.6903 1.01581
1.10302 13.7188 4.41105
1.59528 15.2146 12.773
15.2843 12.8746 12.5869
1.02541 6.87868 15.8389
12.479 10.6911 8.15632
14.4593 0.194554 6.40373
4.21007 6.18367 10.3311
