New POSCAR file                         
   1.00000000000000     
    10.2500000000000000    0.0000000000000000    0.0000000000000000
     0.0000000000000000   10.2500000000000000    0.0000000000000000
     0.0000000000000000    0.0000000000000000   12.3499999999999996
   Li   P    S    Cl
    30     5    25     5
Direct
  0.6347082926829302  0.8941921951219527  0.0117835627530383
  0.7261219512195112  0.5747258536585349  0.6115635627530338
  0.2176253658536567  0.1702000000000012  0.0239439676113378
  0.1617619512195105  0.7042536585365866  0.1999708502024262
  0.2916673170731698  0.1966302439024403  0.3293838056680158
  0.2062799999999996  0.0517480000000035  0.6613668016194367
  0.7392214634146370  0.5624526829268319  0.2158129554655872
  0.5116068292682954  0.0786265365853680  0.3036979757085021
  0.9864390243902434  0.9262517073170713  0.5873174089068840
  0.9299200000000027  0.3888448780487792  0.2296696356275305
  0.4378926829268295  0.9717668292682902  0.5264315789473670
  0.8950000000000031  0.5930546341463412  0.0152119028340110
  0.0054025853658501  0.3598234146341497  0.7367870445344096
  0.3003043902439018  0.5198478048780473  0.5978251012145748
  0.5994526829268310  0.2382478048780499  0.9868663967611369
  0.8369102439024374  0.1931209756097587  0.8297489878542521
  0.6164731707317088  0.5401707317073203  0.9914331983805695
  0.4450702439024354  0.4054263414634178  0.4354906882591081
  0.4835590243902459  0.6551931707317067  0.1568672064777346
  0.2085912195121935  0.7382146341463383  0.8642510121457505
  0.6875873170731737  0.2475014634146362  0.2204396761133580
  0.9734526829268262  0.6962009756097558  0.7269991902834008
  0.0255043902439027  0.3668370731707284  0.4492906882591114
  0.9063492682926864  0.2164946341463434  0.0383140080971671
  0.7119229268292671  0.1277492682926820  0.4494348178137670
  0.5446917073170710  0.6355219512195092  0.7755522267206487
  0.6253248780487795  0.8358546341463438  0.2454979757085027
  0.7055297560975617  0.0485399024390247  0.7691473684210521
  0.5993160975609726  0.2798526829268297  0.6139036437246972
  0.8966321951219527  0.8732741463414655  0.0272492307692289
  0.2968721951219493  0.6069668292682948  0.3395271255060734
  0.2808673170731737  0.4768429268292707  0.8860404858299589
  0.0952160975609786  0.4313599999999980  0.9844210526315820
  0.1971970731707344  0.7155180487804884  0.4861919028340083
  0.9788390243902469  0.6223795121951241  0.4562914979757053
  0.3673717073170764  0.1080809756097594  0.8032923076923097
  0.3825053658536604  0.8901034146341473  0.2227465587044506
  0.4382868292682929  0.9160770731707331  0.8286639676113339
  0.1996614634146354  0.9060243902438998  0.4864947368421042
  0.8472878048780501  0.7371229268292652  0.5433643724696324
  0.0266054634146329  0.1914409756097584  0.5891433198380582
  0.5034087804878027  0.6154692682926850  0.3349076923076950
  0.3926624390243916  0.6207209756097569  0.9512955465587041
  0.1854536585365878  0.3833980487804851  0.1374898785425103
  0.1832390243902466  0.5590985365853669  0.7438267206477747
  0.7715834146341436  0.3692575609756119  0.0756761943319830
  0.7703102439024363  0.5573580487804861  0.8158056680161963
  0.0750510243902411  0.2445843902439009  0.8993198380566767
  0.9509931707317065  0.6481902439024410  0.2915651821862326
  0.0803901463414647  0.2158107317073146  0.1846485829959548
  0.7851687804878082  0.0528716097560959  0.9590202429149812
  0.8393112195121972  0.1197463414634115  0.6061740890688228
  0.4779521951219508  0.1849541463414610  0.4641473684210524
  0.6935931707317096  0.7228204878048814  0.0877668016194306
  0.8001404878048746  0.3987882926829300  0.7338858299595117
  0.4494360975609766  0.1809151219512160  0.1437522267206504
  0.5365443902439040  0.2279551219512186  0.8105182186234785
  0.5573082926829258  0.8520624390243867  0.6911757085020227
  0.4135317073170697  0.0068091317073140  0.0783987854251009
  0.2398243902439035  0.4345443902439001  0.4125117408906860
  0.5264907317073195  0.4924712195121970  0.6078785425101216
  0.7952029268292691  0.3347785365853682  0.3768032388663940
  0.0881902439024387  0.8977404878048816  0.7576161943319804
  0.7506829268292705  0.0294854634146375  0.2904056680161915
  0.0741676097560955  0.7516507317073149  0.0262161943319867
 
  0.00000000E+00  0.00000000E+00  0.00000000E+00
  0.00000000E+00  0.00000000E+00  0.00000000E+00
  0.00000000E+00  0.00000000E+00  0.00000000E+00
  0.00000000E+00  0.00000000E+00  0.00000000E+00
  0.00000000E+00  0.00000000E+00  0.00000000E+00
  0.00000000E+00  0.00000000E+00  0.00000000E+00
  0.00000000E+00  0.00000000E+00  0.00000000E+00
  0.00000000E+00  0.00000000E+00  0.00000000E+00
  0.00000000E+00  0.00000000E+00  0.00000000E+00
  0.00000000E+00  0.00000000E+00  0.00000000E+00
  0.00000000E+00  0.00000000E+00  0.00000000E+00
  0.00000000E+00  0.00000000E+00  0.00000000E+00
  0.00000000E+00  0.00000000E+00  0.00000000E+00
  0.00000000E+00  0.00000000E+00  0.00000000E+00
  0.00000000E+00  0.00000000E+00  0.00000000E+00
  0.00000000E+00  0.00000000E+00  0.00000000E+00
  0.00000000E+00  0.00000000E+00  0.00000000E+00
  0.00000000E+00  0.00000000E+00  0.00000000E+00
  0.00000000E+00  0.00000000E+00  0.00000000E+00
  0.00000000E+00  0.00000000E+00  0.00000000E+00
  0.00000000E+00  0.00000000E+00  0.00000000E+00
  0.00000000E+00  0.00000000E+00  0.00000000E+00
  0.00000000E+00  0.00000000E+00  0.00000000E+00
  0.00000000E+00  0.00000000E+00  0.00000000E+00
  0.00000000E+00  0.00000000E+00  0.00000000E+00
  0.00000000E+00  0.00000000E+00  0.00000000E+00
  0.00000000E+00  0.00000000E+00  0.00000000E+00
  0.00000000E+00  0.00000000E+00  0.00000000E+00
  0.00000000E+00  0.00000000E+00  0.00000000E+00
  0.00000000E+00  0.00000000E+00  0.00000000E+00
  0.00000000E+00  0.00000000E+00  0.00000000E+00
  0.00000000E+00  0.00000000E+00  0.00000000E+00
  0.00000000E+00  0.00000000E+00  0.00000000E+00
  0.00000000E+00  0.00000000E+00  0.00000000E+00
  0.00000000E+00  0.00000000E+00  0.00000000E+00
  0.00000000E+00  0.00000000E+00  0.00000000E+00
  0.00000000E+00  0.00000000E+00  0.00000000E+00
  0.00000000E+00  0.00000000E+00  0.00000000E+00
  0.00000000E+00  0.00000000E+00  0.00000000E+00
  0.00000000E+00  0.00000000E+00  0.00000000E+00
  0.00000000E+00  0.00000000E+00  0.00000000E+00
  0.00000000E+00  0.00000000E+00  0.00000000E+00
  0.00000000E+00  0.00000000E+00  0.00000000E+00
  0.00000000E+00  0.00000000E+00  0.00000000E+00
  0.00000000E+00  0.00000000E+00  0.00000000E+00
  0.00000000E+00  0.00000000E+00  0.00000000E+00
  0.00000000E+00  0.00000000E+00  0.00000000E+00
  0.00000000E+00  0.00000000E+00  0.00000000E+00
  0.00000000E+00  0.00000000E+00  0.00000000E+00
  0.00000000E+00  0.00000000E+00  0.00000000E+00
  0.00000000E+00  0.00000000E+00  0.00000000E+00
  0.00000000E+00  0.00000000E+00  0.00000000E+00
  0.00000000E+00  0.00000000E+00  0.00000000E+00
  0.00000000E+00  0.00000000E+00  0.00000000E+00
  0.00000000E+00  0.00000000E+00  0.00000000E+00
  0.00000000E+00  0.00000000E+00  0.00000000E+00
  0.00000000E+00  0.00000000E+00  0.00000000E+00
  0.00000000E+00  0.00000000E+00  0.00000000E+00
  0.00000000E+00  0.00000000E+00  0.00000000E+00
  0.00000000E+00  0.00000000E+00  0.00000000E+00
  0.00000000E+00  0.00000000E+00  0.00000000E+00
  0.00000000E+00  0.00000000E+00  0.00000000E+00
  0.00000000E+00  0.00000000E+00  0.00000000E+00
  0.00000000E+00  0.00000000E+00  0.00000000E+00
  0.00000000E+00  0.00000000E+00  0.00000000E+00
