New POSCAR file                         
   1.00000000000000     
    10.2500000000000000    0.0000000000000000    0.0000000000000000
     0.0000000000000000   10.2500000000000000    0.0000000000000000
     0.0000000000000000    0.0000000000000000   12.3499999999999996
   Li   P    S    Cl
    30     5    25     5
Direct
  0.6364770731707310  0.8752136585365875  0.9854089068825900
  0.7192117073170721  0.6033141463414609  0.6189392712550585
  0.2270673170731712  0.1225590243902417  0.0611229959514148
  0.1308253658536600  0.7478097560975598  0.2108121457489887
  0.2819785365853633  0.1849268292682922  0.3113748987854237
  0.1717326829268302  0.0492530731707319  0.6668526315789478
  0.7069531707317083  0.5748653658536611  0.2363935222672069
  0.5214809756097551  0.0600691707317083  0.3137627530364355
  0.9767999999999972  0.9173521951219499  0.5981052631578976
  0.9116370731707306  0.4102507317073147  0.2201927125506060
  0.4252136585365847  0.9742360975609756  0.5218591093117411
  0.9182575609756114  0.5862302439024418  0.0371506072874510
  0.0041003902439058  0.3690799999999967  0.7193748987854249
  0.3052741463414606  0.5440341463414669  0.5935716599190286
  0.6042312195121937  0.2100214634146340  0.0042649716599215
  0.8352175609756074  0.2580702439024378  0.8486720647773254
  0.6474126829268272  0.5321346341463382  0.9807044534412981
  0.4781365853658528  0.4096595121951196  0.4284761133603254
  0.4946712195121918  0.6764565853658553  0.1313093117408926
  0.2472146341463386  0.7649297560975583  0.8846477732793545
  0.6445287804878035  0.2842068292682924  0.2142186234817842
  0.9433570731707306  0.6624302439024419  0.7246024291497974
  0.0161982439024371  0.3971882926829267  0.4588421052631588
  0.9237356097561005  0.2131375609756105  0.0454125506072884
  0.7089531707317107  0.1389873170731732  0.4427886639676117
  0.5545121951219514  0.6143648780487823  0.7820769230769216
  0.6520478048780518  0.8666253658536576  0.1922299595141723
  0.6901990243902461  0.0735476097560976  0.8124048582995940
  0.5761668292682955  0.2457414634146318  0.6146445344129532
  0.9062770731707346  0.8823473170731688  0.0105787044534438
  0.3006009756097541  0.6287853658536591  0.3289052631578926
  0.2860156097560989  0.4582819512195115  0.8856032388663948
  0.0804077073170717  0.4199551219512188  0.9762834008097201
  0.1639326829268271  0.7040517073170705  0.5014801619433200
  0.9838243902439032  0.6207531707317102  0.4541894736842096
  0.3774673170731688  0.1171892682926838  0.8203886639676128
  0.3992507317073191  0.9001599999999996  0.2234631578947344
  0.4596643902439013  0.9160829268292687  0.8133927125506091
  0.2098253658536606  0.9009404878048812  0.5069748987854226
  0.8548585365853683  0.7615814634146361  0.5314510121457516
  0.0245440975609768  0.1985102439024402  0.5799740890688270
  0.5195004878048763  0.6059580487804865  0.3272137651821865
  0.3980575609756087  0.6188604878048807  0.9483319838056659
  0.2089014634146338  0.3636224390243896  0.1309522267206447
  0.1788068292682894  0.5509629268292713  0.7588251012145761
  0.7490097560975641  0.3973590243902407  0.0764870445344101
  0.7755082926829289  0.5478809756097576  0.8200404858299564
  0.0602332682926843  0.2656302439024358  0.8908663967611332
  0.9587053658536604  0.6169063414634124  0.2961846153846182
  0.0739585365853657  0.2293863414634174  0.1888591093117427
  0.7592058536585355  0.0642914146341482  0.9719757085020220
  0.8446107317073199  0.1046712195121984  0.6065141700404837
  0.4540692682926846  0.1812604878048774  0.4659287449392693
  0.7203219512195105  0.7259609756097589  0.0841214574898785
  0.7772019512195101  0.3821248780487778  0.7141336032388637
  0.4310243902439055  0.1814273170731724  0.1619635627530371
  0.5318273170731729  0.2467336585365842  0.8074032388663994
  0.5725795121951194  0.8624985365853632  0.7068631578947375
  0.4219541463414629  0.9834634146341443  0.0867999999999967
  0.2232731707317086  0.4564380487804911  0.4217465587044558
  0.5144848780487834  0.4981921951219519  0.5990850202429172
  0.8080604878048803  0.3253492682926833  0.3763894736842133
  0.1231980487804876  0.8574848780487798  0.7403967611336029
  0.7332565853658508  0.0523830243902452  0.2838923076923052
  0.0803631219512226  0.7279736585365839  0.0157246963562727
 
  0.00000000E+00  0.00000000E+00  0.00000000E+00
  0.00000000E+00  0.00000000E+00  0.00000000E+00
  0.00000000E+00  0.00000000E+00  0.00000000E+00
  0.00000000E+00  0.00000000E+00  0.00000000E+00
  0.00000000E+00  0.00000000E+00  0.00000000E+00
  0.00000000E+00  0.00000000E+00  0.00000000E+00
  0.00000000E+00  0.00000000E+00  0.00000000E+00
  0.00000000E+00  0.00000000E+00  0.00000000E+00
  0.00000000E+00  0.00000000E+00  0.00000000E+00
  0.00000000E+00  0.00000000E+00  0.00000000E+00
  0.00000000E+00  0.00000000E+00  0.00000000E+00
  0.00000000E+00  0.00000000E+00  0.00000000E+00
  0.00000000E+00  0.00000000E+00  0.00000000E+00
  0.00000000E+00  0.00000000E+00  0.00000000E+00
  0.00000000E+00  0.00000000E+00  0.00000000E+00
  0.00000000E+00  0.00000000E+00  0.00000000E+00
  0.00000000E+00  0.00000000E+00  0.00000000E+00
  0.00000000E+00  0.00000000E+00  0.00000000E+00
  0.00000000E+00  0.00000000E+00  0.00000000E+00
  0.00000000E+00  0.00000000E+00  0.00000000E+00
  0.00000000E+00  0.00000000E+00  0.00000000E+00
  0.00000000E+00  0.00000000E+00  0.00000000E+00
  0.00000000E+00  0.00000000E+00  0.00000000E+00
  0.00000000E+00  0.00000000E+00  0.00000000E+00
  0.00000000E+00  0.00000000E+00  0.00000000E+00
  0.00000000E+00  0.00000000E+00  0.00000000E+00
  0.00000000E+00  0.00000000E+00  0.00000000E+00
  0.00000000E+00  0.00000000E+00  0.00000000E+00
  0.00000000E+00  0.00000000E+00  0.00000000E+00
  0.00000000E+00  0.00000000E+00  0.00000000E+00
  0.00000000E+00  0.00000000E+00  0.00000000E+00
  0.00000000E+00  0.00000000E+00  0.00000000E+00
  0.00000000E+00  0.00000000E+00  0.00000000E+00
  0.00000000E+00  0.00000000E+00  0.00000000E+00
  0.00000000E+00  0.00000000E+00  0.00000000E+00
  0.00000000E+00  0.00000000E+00  0.00000000E+00
  0.00000000E+00  0.00000000E+00  0.00000000E+00
  0.00000000E+00  0.00000000E+00  0.00000000E+00
  0.00000000E+00  0.00000000E+00  0.00000000E+00
  0.00000000E+00  0.00000000E+00  0.00000000E+00
  0.00000000E+00  0.00000000E+00  0.00000000E+00
  0.00000000E+00  0.00000000E+00  0.00000000E+00
  0.00000000E+00  0.00000000E+00  0.00000000E+00
  0.00000000E+00  0.00000000E+00  0.00000000E+00
  0.00000000E+00  0.00000000E+00  0.00000000E+00
  0.00000000E+00  0.00000000E+00  0.00000000E+00
  0.00000000E+00  0.00000000E+00  0.00000000E+00
  0.00000000E+00  0.00000000E+00  0.00000000E+00
  0.00000000E+00  0.00000000E+00  0.00000000E+00
  0.00000000E+00  0.00000000E+00  0.00000000E+00
  0.00000000E+00  0.00000000E+00  0.00000000E+00
  0.00000000E+00  0.00000000E+00  0.00000000E+00
  0.00000000E+00  0.00000000E+00  0.00000000E+00
  0.00000000E+00  0.00000000E+00  0.00000000E+00
  0.00000000E+00  0.00000000E+00  0.00000000E+00
  0.00000000E+00  0.00000000E+00  0.00000000E+00
  0.00000000E+00  0.00000000E+00  0.00000000E+00
  0.00000000E+00  0.00000000E+00  0.00000000E+00
  0.00000000E+00  0.00000000E+00  0.00000000E+00
  0.00000000E+00  0.00000000E+00  0.00000000E+00
  0.00000000E+00  0.00000000E+00  0.00000000E+00
  0.00000000E+00  0.00000000E+00  0.00000000E+00
  0.00000000E+00  0.00000000E+00  0.00000000E+00
  0.00000000E+00  0.00000000E+00  0.00000000E+00
  0.00000000E+00  0.00000000E+00  0.00000000E+00
