New POSCAR file                         
   1.00000000000000     
    10.2500000000000000    0.0000000000000000    0.0000000000000000
     0.0000000000000000   10.2500000000000000    0.0000000000000000
     0.0000000000000000    0.0000000000000000   12.3499999999999996
   Li   P    S    Cl
    30     5    25     5
Direct
  0.6270624390243924  0.8948370731707342  0.0047471659919012
  0.7320146341463385  0.5691239024390242  0.6118987854251046
  0.2299443902439009  0.1744341463414614  0.0289946558704486
  0.1540048780487808  0.7255921951219477  0.2058080971659919
  0.2985268292682903  0.2073395121951194  0.3238534412955474
  0.2002780487804898  0.0484777560975616  0.6629441295546528
  0.7346985365853627  0.5592995121951247  0.2144906882591116
  0.5111443902438992  0.0725693658536599  0.3017012145748978
  0.9837268292682921  0.9325590243902440  0.5811724696356251
  0.9384029268292693  0.4024224390243916  0.2274210526315770
  0.4319717073170750  0.9669063414634138  0.5262866396761154
  0.8918819512195100  0.5884009756097583  0.0080281457489875
  0.0137313170731730  0.3638595121951198  0.7340914979757116
  0.2965180487804844  0.5230497560975635  0.5993279352226750
  0.6167248780487782  0.2301199999999994  0.9866315789473674
  0.8527882926829236  0.1847024390243917  0.8269068825910963
  0.6233882926829253  0.5395024390243890  0.9889473684210515
  0.4627726829268326  0.4046117073170734  0.4320348178137650
  0.4759053658536558  0.6602809756097585  0.1480534412955450
  0.2074975609756109  0.7494097560975632  0.8662834008097136
  0.6982468292682924  0.2402078048780467  0.2183902834008080
  0.9693424390243877  0.6977317073170752  0.7313846153846129
  0.0184044878048795  0.3709863414634142  0.4550372469635633
  0.9082819512195144  0.2077336585365828  0.0407140080971686
  0.7186712195121956  0.1344478048780502  0.4492874493927133
  0.5425853658536610  0.6327385365853644  0.7749668016194349
  0.6241687804878069  0.8199034146341475  0.2489902834008078
  0.7033687804878070  0.0330422439024360  0.7718914979757088
  0.6014058536585338  0.2783580487804898  0.6153902834008065
  0.8807824390243937  0.8701785365853638  0.0353663157894744
  0.2904829268292701  0.6073004878048778  0.3381360323886611
  0.2836829268292718  0.4692673170731680  0.8848259109311769
  0.0952009756097567  0.4323512195121921  0.9798218623481816
  0.1975014634146319  0.7137414634146353  0.4878769230769251
  0.9868585365853662  0.6211326829268273  0.4544655870445311
  0.3684146341463403  0.1056487804878046  0.8055182186234831
  0.3836751219512209  0.8876848780487805  0.2196558704453437
  0.4345151219512218  0.9122019512195152  0.8285829959514146
  0.1984146341463386  0.9067863414634161  0.4808307692307707
  0.8598273170731687  0.7368663414634113  0.5455149797570868
  0.0256543414634152  0.1954624390243893  0.5916210526315808
  0.4976273170731673  0.6161551219512162  0.3361935222672088
  0.3959043902438992  0.6168468292682903  0.9494412955465563
  0.1785931707317090  0.3884497560975575  0.1371522267206444
  0.1819356097560956  0.5563248780487839  0.7480453441295580
  0.7747463414634126  0.3743209756097556  0.0799719028340107
  0.7701639024390232  0.5668399999999991  0.8166153846153819
  0.0778277073170699  0.2435414634146369  0.9025910931174081
  0.9497717073170762  0.6519239024390231  0.2909878542510143
  0.0887877073170742  0.2144292682926832  0.1879417004048562
  0.7845824390243905  0.0469691707317068  0.9535465587044527
  0.8369843902439058  0.1225863414634176  0.6117562753036410
  0.4835746341463434  0.1772517073170761  0.4635457489878547
  0.6887453658536558  0.7229795121951241  0.0875846153846140
  0.8021063414634142  0.4001336585365820  0.7371846153846136
  0.4571570731707340  0.1851121951219525  0.1409246963562722
  0.5365873170731703  0.2212478048780468  0.8056259109311767
  0.5478751219512219  0.8530302439024382  0.6897376518218650
  0.4122136585365865  0.0081878243902409  0.0797405668016182
  0.2429795121951202  0.4299160975609766  0.4121781376518214
  0.5246312195121945  0.4963697560975575  0.6093910931174094
  0.7935999999999979  0.3426682926829301  0.3762615384615415
  0.0784970731707304  0.8997570731707327  0.7599991902834020
  0.7465229268292717  0.0225055609756097  0.2876186234817837
  0.0699336585365842  0.7574419512195121  0.0278274493927100
 
  0.00000000E+00  0.00000000E+00  0.00000000E+00
  0.00000000E+00  0.00000000E+00  0.00000000E+00
  0.00000000E+00  0.00000000E+00  0.00000000E+00
  0.00000000E+00  0.00000000E+00  0.00000000E+00
  0.00000000E+00  0.00000000E+00  0.00000000E+00
  0.00000000E+00  0.00000000E+00  0.00000000E+00
  0.00000000E+00  0.00000000E+00  0.00000000E+00
  0.00000000E+00  0.00000000E+00  0.00000000E+00
  0.00000000E+00  0.00000000E+00  0.00000000E+00
  0.00000000E+00  0.00000000E+00  0.00000000E+00
  0.00000000E+00  0.00000000E+00  0.00000000E+00
  0.00000000E+00  0.00000000E+00  0.00000000E+00
  0.00000000E+00  0.00000000E+00  0.00000000E+00
  0.00000000E+00  0.00000000E+00  0.00000000E+00
  0.00000000E+00  0.00000000E+00  0.00000000E+00
  0.00000000E+00  0.00000000E+00  0.00000000E+00
  0.00000000E+00  0.00000000E+00  0.00000000E+00
  0.00000000E+00  0.00000000E+00  0.00000000E+00
  0.00000000E+00  0.00000000E+00  0.00000000E+00
  0.00000000E+00  0.00000000E+00  0.00000000E+00
  0.00000000E+00  0.00000000E+00  0.00000000E+00
  0.00000000E+00  0.00000000E+00  0.00000000E+00
  0.00000000E+00  0.00000000E+00  0.00000000E+00
  0.00000000E+00  0.00000000E+00  0.00000000E+00
  0.00000000E+00  0.00000000E+00  0.00000000E+00
  0.00000000E+00  0.00000000E+00  0.00000000E+00
  0.00000000E+00  0.00000000E+00  0.00000000E+00
  0.00000000E+00  0.00000000E+00  0.00000000E+00
  0.00000000E+00  0.00000000E+00  0.00000000E+00
  0.00000000E+00  0.00000000E+00  0.00000000E+00
  0.00000000E+00  0.00000000E+00  0.00000000E+00
  0.00000000E+00  0.00000000E+00  0.00000000E+00
  0.00000000E+00  0.00000000E+00  0.00000000E+00
  0.00000000E+00  0.00000000E+00  0.00000000E+00
  0.00000000E+00  0.00000000E+00  0.00000000E+00
  0.00000000E+00  0.00000000E+00  0.00000000E+00
  0.00000000E+00  0.00000000E+00  0.00000000E+00
  0.00000000E+00  0.00000000E+00  0.00000000E+00
  0.00000000E+00  0.00000000E+00  0.00000000E+00
  0.00000000E+00  0.00000000E+00  0.00000000E+00
  0.00000000E+00  0.00000000E+00  0.00000000E+00
  0.00000000E+00  0.00000000E+00  0.00000000E+00
  0.00000000E+00  0.00000000E+00  0.00000000E+00
  0.00000000E+00  0.00000000E+00  0.00000000E+00
  0.00000000E+00  0.00000000E+00  0.00000000E+00
  0.00000000E+00  0.00000000E+00  0.00000000E+00
  0.00000000E+00  0.00000000E+00  0.00000000E+00
  0.00000000E+00  0.00000000E+00  0.00000000E+00
  0.00000000E+00  0.00000000E+00  0.00000000E+00
  0.00000000E+00  0.00000000E+00  0.00000000E+00
  0.00000000E+00  0.00000000E+00  0.00000000E+00
  0.00000000E+00  0.00000000E+00  0.00000000E+00
  0.00000000E+00  0.00000000E+00  0.00000000E+00
  0.00000000E+00  0.00000000E+00  0.00000000E+00
  0.00000000E+00  0.00000000E+00  0.00000000E+00
  0.00000000E+00  0.00000000E+00  0.00000000E+00
  0.00000000E+00  0.00000000E+00  0.00000000E+00
  0.00000000E+00  0.00000000E+00  0.00000000E+00
  0.00000000E+00  0.00000000E+00  0.00000000E+00
  0.00000000E+00  0.00000000E+00  0.00000000E+00
  0.00000000E+00  0.00000000E+00  0.00000000E+00
  0.00000000E+00  0.00000000E+00  0.00000000E+00
  0.00000000E+00  0.00000000E+00  0.00000000E+00
  0.00000000E+00  0.00000000E+00  0.00000000E+00
  0.00000000E+00  0.00000000E+00  0.00000000E+00
