New POSCAR file                         
   1.00000000000000     
    16.0260819999999988    0.0000000000000000    0.0000000000000000
     0.0000000000000000   16.1000000000000014    0.0000000000000000
     0.0000000000000000    0.0000000000000000   16.4253670000000014
   Li   P    S    Cl
    96    16    80    16
Direct
  0.7180295221252422  0.8158695652173904  0.1916517299126426
  0.5713143112583623  0.6711863354037249  0.0081942765723255
  0.6652967331628545  0.6294782608695684  0.1925570369295215
  0.8314571209606925  0.9374347826086975  0.0156999231737132
  0.5795340370778064  0.7765652173913011  0.2896690223116494
  0.9051370135258239  0.7594844720496923  0.9151758983528353
  0.2338307017273493  0.0494709316770212  0.0438625206974095
  0.2155910596239323  0.8539565217391285  0.2851485753712524
  0.1174859831616999  0.9997639751552825  0.3594135826615030
  0.2283446446860822  0.7414906832298129  0.0552183704632014
  0.1002297379983474  0.6922670807453386  0.8991823439926776
  0.3347749000660301  0.8446335403726692  0.4291764074434354
  0.3811611596646003  0.4840229813664578  0.6091431625241626
  0.5311922152900479  0.8066645962732935  0.5282980891690272
  0.7157707042806862  0.8593291925465820  0.7656145521740854
  0.3377700176499800  0.6441677018633527  0.4341467682274640
  0.7074467733286269  0.5249552795031036  0.7659676645276789
  0.1597545800651687  0.7108012422360233  0.6320467603554931
  0.9714788680102870  0.9076273291925432  0.8756090503183245
  0.9186025629969947  0.4710577639751534  0.9650499742258418
  0.1595786169071118  0.4736894409937875  0.6809345568960481
  0.5038474157314283  0.8950496894409952  0.8560843724222451
  0.0061148632585315  0.6294472049689404  0.7449453032008364
  0.8446356383300682  0.5857155279503132  0.8508972737108422
  0.3532204565033439  0.4768757763975131  0.8784461254351257
  0.0810815768944622  0.5107627329192539  0.8689425326082514
  0.2356152926211195  0.6115074534161522  0.8223438782220214
  0.4203772325637658  0.7053726708074564  0.9194680398922017
  0.0674388162995783  0.3154285714285692  0.6897258368717090
  0.5346166330610345  0.6447888198757781  0.7458950536691233
  0.2740438991888325  0.2765055900621149  0.0503540651481345
  0.3504892836564792  0.1737285714285690  0.1467194005467292
  0.4627444187543759  0.0710683229813682  0.0180562784381024
  0.4299778323859798  0.3206664596273257  0.0418070415108502
  0.6296548339138681  0.3850751552795018  0.1856969162393725
  0.0662856960297589  0.1637161490683212  0.1229263248729850
  0.7966076799057902  0.1043242236024824  0.4863197272852418
  0.8132867409514049  0.3095204968944074  0.6710352347073893
  0.6270091467147125  0.0063878260869572  0.9361008493752365
  0.5769239168999647  0.3107124223602469  0.6852997561637437
  0.8691581635486472  0.1735975155279519  0.8063625001499233
  0.7676361571093935  0.3148366459627354  0.8658619317303504
  0.4758436903043446  0.2152192546583862  0.3496688993311352
  0.2512129914223564  0.0033252919254636  0.7335970027336387
  0.3249945931887765  0.0881894409937871  0.3415022629326927
  0.9779183708157717  0.1601863354037292  0.6345611638388320
  0.4102537351300199  0.9896335403726724  0.5026633499269764
  0.9471248181558067  0.3245807453416134  0.4219607391420865
  0.3806825648339967  0.4133937888198744  0.3944569396836002
  0.0018183171657284  0.2155316770186317  0.2720474982385497
  0.1855163351841114  0.2768360248447195  0.3085404423535891
  0.9680344827887453  0.3889236024844749  0.2113974074369267
  0.1329276862554423  0.4850459627329187  0.3213182390384333
  0.2778077636193288  0.4895981366459594  0.1890119106623303
  0.7882525498122348  0.6079695652173882  0.3126517660153354
  0.1062530442562348  0.5794639751552779  0.0841655471077161
  0.8062107756593306  0.4687136645962724  0.1229926856428847
  0.0884189909923094  0.6997329192546573  0.2985382305308590
  0.9564533614641419  0.6611242236024850  0.0477798760904378
  0.1095770007915817  0.4123080745341596  0.4668997654664295
  0.4375068092126355  0.0178681987577605  0.7481902839674746
  0.3244317606761271  0.9401987577639730  0.9168805786805265
  0.3832296627460181  0.8869875776397507  0.6367285431126106
  0.0840685827016259  0.8335403726708108  0.7363549319780773
  0.2144423072339237  0.8481180124223613  0.8581117243833845
  0.3200732406086502  0.7473726708074508  0.7441234037571292
  0.0385407362822647  0.8251739130434785  0.4565602704645784
  0.8854940340377624  0.9104161490683254  0.4910812647291252
  0.8769142701254111  0.7912732919254637  0.2492394842684504
  0.8944107486783111  0.7351739130434751  0.5306298483315501
  0.7847520061359958  0.7645403726708082  0.4162731949916250
  0.7394882916485770  0.1046658385093195  0.7005992621047668
  0.9883576035614965  0.3324496894409918  0.8622090453138753
  0.3796405135079155  0.1777844720496873  0.8562731048870944
  0.1362572586362631  0.1618602484472049  0.8416554710771464
  0.2860443369751877  0.3310857142857131  0.7851818470783627
  0.0933940060958136  0.8751242236024837  0.0512587633506172
  0.2113766795901810  0.4552093167701869  0.9516499692213856
  0.5767822727975584  0.4201341614906866  0.3901367926817088
  0.5173092213056165  0.5779403726708097  0.1352322903957059
  0.7162074922616739  0.2330801242236049  0.3113714293263570
  0.5256836948669061  0.6043204968944096  0.2976852815526101
  0.4289033339527393  0.7140186335403698  0.2381584533240542
  0.7731708848113996  0.4225093167701885  0.3563323729691987
  0.8257164789247895  0.0458764596273298  0.2672823079082463
  0.5075588656042100  0.8732173913043511  0.1300585856011622
  0.6436507687905220  0.6695714285714303  0.4064791976946367
  0.7018496473436215  0.9303913043478289  0.3332229958697397
  0.4704056799409884  0.0225528571428555  0.2456712230539537
  0.5411428694798914  0.9427888198757728  0.3788262387074823
  0.3842898095741702  0.2223888198757749  0.7011837239314076
  0.8261657465623884  0.5499583850931700  0.5588106494058849
  0.5774699018762064  0.0997714285714295  0.7200021771203069
  0.1940936031651432  0.1888105590062139  0.6495501744344594
  0.5893642625814621  0.0994577639751526  0.4757708001288492
  0.6183389052920134  0.1905322981366453  0.8565714239444375
  0.7000775361064555  0.9276086956521752  0.5742781881220651
  0.6276768083427982  0.6903043478260855  0.6134657447836602
  0.3492151107176440  0.2946273291925436  0.2318943619341951
  0.2129060615064873  0.9581925465838523  0.5285318738996807
  0.9316438041437678  0.5563546583850965  0.3865058235837253
  0.9027658787718664  0.4400273291925458  0.7297310312761951
  0.5242042315770021  0.3233503105590074  0.5691312711612468
  0.1001024455010295  0.6020913043478231  0.5160621373026260
  0.6086403401654863  0.1099074534161488  0.2569348983191659
  0.7884397446612326  0.0041231801242247  0.8516217628501082
  0.9086188377171638  0.8453788819875783  0.1167882580644957
  0.3407220804186579  0.5261024844720481  0.0498919750164504
  0.8436747047718853  0.2600720496894411  0.1848457937043335
  0.6678987415639099  0.4693111801242225  0.9838014578304382
  0.2695780540746000  0.6629006211180126  0.2515414115252312
  0.5103880037553807  0.4131993788819841  0.8442916374410387
  0.6961838832473219  0.0479089440993761  0.5645438546365540
  0.6568854446145949  0.8805838509316786  0.4589182086464163
  0.6048721078551793  0.8745776397515499  0.6455380875203574
  0.7982487547486627  0.8714782608695657  0.6254776529498542
  0.6828868091402498  0.6772049689440962  0.7233323919033268
  0.7144416208528099  0.7382732919254664  0.2963501515673883
  0.5029388967309671  0.9582670807453439  0.6301107305547546
  0.5044701505957576  0.6898447204968932  0.4231266187233444
  0.4202811392079511  0.4007987577639724  0.1845541716054200
  0.3443193414335468  0.2853633540372655  0.3529747615380501
  0.1217459139420356  0.1358857142857133  0.2633639784121726
  0.2384044958711655  0.3414478260869558  0.1844835491347041
  0.2447435374410318  0.9676397515527952  0.4037724088600285
  0.2795368200412298  0.0475537888198758  0.5774068853377798
  0.2791112637511759  0.8354906832298141  0.5600855067652333
  0.0841603081776299  0.9539751552795011  0.5289677850120498
  0.8949910527102034  0.4557105590062136  0.4324518289302119
  0.6646477910196609  0.5249285714285747  0.3057423313585659
  0.0665945675306077  0.5876080745341596  0.3882914762269820
  0.6768965739723569  0.3152888198757751  0.4332158910056592
  0.8685716196884528  0.4111720496894407  0.8502823711640630
  0.0266137412750069  0.4396440993788815  0.7574807917533875
  0.8669367846738822  0.5592795031055928  0.6962888561333216
  0.6736955420545101  0.4898440993788853  0.5502214958119325
  0.5790173792945765  0.5781037267080720  0.5826396451293903
  0.4772245643071074  0.4290229813664581  0.5163793296064583
  0.4233848298043128  0.2396422360248422  0.5755530454814206
  0.5615196527760205  0.2661099378881957  0.4704558503928737
  0.0336193837021455  0.7091055900621086  0.5670077265244657
  0.3480389030831148  0.6485527950310583  0.5833604813822433
  0.0531474879512004  0.4951950310558999  0.5746994876887683
  0.1682214030852975  0.7204968944099406  0.7711425869510222
  0.4694079313958355  0.0709944099378887  0.3910536671722440
  0.6941122602517567  0.1042062111801272  0.1486560391618639
  0.6775829550853416  0.0847571428571428  0.3536694187715881
  0.5863772567742984  0.2371857142857152  0.2421072235402733
  0.7495780940095003  0.1007689440993786  0.9353946246680493
  0.6800726465769955  0.9963664596273318  0.7893826664573140
  0.7961584122681984  0.8871242236024841  0.9012827536821533
  0.8811635931976411  0.0353244720496875  0.7764270959668664
  0.8246369886289102  0.9417329192546546  0.1577298090204025
  0.9175043532162164  0.5803360248447191  0.2407988813887698
  0.9715163069800852  0.9102173913043501  0.0262932329000591
  0.8398933688221462  0.7673416149068331  0.0580548367655922
  0.3680144654195558  0.5834378881987590  0.2822804507199166
  0.4489706217651985  0.5671267080745324  0.9892625230230792
  0.2439261199337395  0.6080844720496899  0.9830526161150601
  0.3307483388641117  0.4153248447204945  0.0061003203155252
  0.8596923440177093  0.1926857142857159  0.2821885197450982
  0.7431011522342175  0.2154527950310552  0.1132632226725860
  0.9488782099080737  0.2610031055900635  0.1251083156924295
  0.8177482181858267  0.3640956521739156  0.2282694809802450
  0.6493726913415259  0.5037465838509334  0.1013292427499479
  0.5932572914577605  0.3766645962732937  0.9483806358786353
  0.7723097885060142  0.4063211180124213  0.9956307216758091
  0.7124011969987407  0.5643254658385075  0.9210753099154516
  0.1687779957696449  0.5898993788819880  0.2208669066572426
  0.3028126275654870  0.7583478260869541  0.1856043764501578
  0.4555261853770602  0.7941552795031086  0.3652241073213176
  0.2413434550004183  0.7084906832298117  0.3789461751448258
  0.5047865098905646  0.2834217391304321  0.7984844417783776
  0.7075091716116262  0.4152322981366439  0.6515288212433816
  0.5064700155658741  0.0877310559006190  0.8626108628196860
  0.5566032920585329  0.4777031055900594  0.7531886502140281
  0.5429567875666663  0.7045279503105562  0.1707036439429359
  0.2293286656089748  0.8961055900621133  0.0022993093548536
  0.4332475024151279  0.7250745341614930  0.6280468497294436
  0.9729327480041619  0.6127459627329159  0.9180616786218536
  0.2285861260412858  0.4687993788819895  0.8133638657815041
  0.3792860912604823  0.1802863354037285  0.0006274258590366
  0.7237264853630450  0.2347987577639756  0.7555143212325177
  0.2601147304749816  0.1744316770186316  0.7731882033442545
  0.0592308837556175  0.3510726708074543  0.3384648878773930
  0.9659067013384828  0.5182944099378872  0.1265901699487131
  0.3369382485375993  0.9130062111801251  0.7867891171016126
  0.9221655049562330  0.8163850931677032  0.4049413325133031
  0.0022667361866766  0.2157931677018610  0.7871422294552062
  0.5282345366759031  0.4334341614906805  0.2564149708192218
  0.5850500452949134  0.9202919254658397  0.2341311460498900
  0.4741920077533592  0.1351472049689448  0.6248566622590559
  0.5308983193771226  0.9355093167701867  0.0079411315436673
  0.3702526918307285  0.0125771428571397  0.1614928908437818
  0.2451428864522214  0.4564795031055908  0.4335221246502456
  0.5334497851689548  0.7622981366459598  0.8913895196375208
  0.3828945839663120  0.6359068322981329  0.7892243747126031
  0.1488529760424271  0.1643962732919277  0.9964100041113255
  0.8758722187993300  0.2129130434782596  0.5498683834583389
  0.1006733897904653  0.2516472049689469  0.5777076396527363
  0.0871585456757273  0.7336770186335428  0.0666371716382343
  0.0804370026310863  0.8510372670807484  0.2768455645465977
  0.1060284104374389  0.9483726708074514  0.7752886130337302
  0.9484476617553810  0.7976956521739140  0.7728411791346872
  0.0654907419043553  0.4233018633540340  0.9733420263912507
  0.7800409357695770  0.6636832298136639  0.5072130199587050
  0.8942609927991114  0.0223298757763999  0.3940112875407920
  0.2758609371897620  0.3794894409937868  0.6352186833938021
 
  0.00000000E+00  0.00000000E+00  0.00000000E+00
  0.00000000E+00  0.00000000E+00  0.00000000E+00
  0.00000000E+00  0.00000000E+00  0.00000000E+00
  0.00000000E+00  0.00000000E+00  0.00000000E+00
  0.00000000E+00  0.00000000E+00  0.00000000E+00
  0.00000000E+00  0.00000000E+00  0.00000000E+00
  0.00000000E+00  0.00000000E+00  0.00000000E+00
  0.00000000E+00  0.00000000E+00  0.00000000E+00
  0.00000000E+00  0.00000000E+00  0.00000000E+00
  0.00000000E+00  0.00000000E+00  0.00000000E+00
  0.00000000E+00  0.00000000E+00  0.00000000E+00
  0.00000000E+00  0.00000000E+00  0.00000000E+00
  0.00000000E+00  0.00000000E+00  0.00000000E+00
  0.00000000E+00  0.00000000E+00  0.00000000E+00
  0.00000000E+00  0.00000000E+00  0.00000000E+00
  0.00000000E+00  0.00000000E+00  0.00000000E+00
  0.00000000E+00  0.00000000E+00  0.00000000E+00
  0.00000000E+00  0.00000000E+00  0.00000000E+00
  0.00000000E+00  0.00000000E+00  0.00000000E+00
  0.00000000E+00  0.00000000E+00  0.00000000E+00
  0.00000000E+00  0.00000000E+00  0.00000000E+00
  0.00000000E+00  0.00000000E+00  0.00000000E+00
  0.00000000E+00  0.00000000E+00  0.00000000E+00
  0.00000000E+00  0.00000000E+00  0.00000000E+00
  0.00000000E+00  0.00000000E+00  0.00000000E+00
  0.00000000E+00  0.00000000E+00  0.00000000E+00
  0.00000000E+00  0.00000000E+00  0.00000000E+00
  0.00000000E+00  0.00000000E+00  0.00000000E+00
  0.00000000E+00  0.00000000E+00  0.00000000E+00
  0.00000000E+00  0.00000000E+00  0.00000000E+00
  0.00000000E+00  0.00000000E+00  0.00000000E+00
  0.00000000E+00  0.00000000E+00  0.00000000E+00
  0.00000000E+00  0.00000000E+00  0.00000000E+00
  0.00000000E+00  0.00000000E+00  0.00000000E+00
  0.00000000E+00  0.00000000E+00  0.00000000E+00
  0.00000000E+00  0.00000000E+00  0.00000000E+00
  0.00000000E+00  0.00000000E+00  0.00000000E+00
  0.00000000E+00  0.00000000E+00  0.00000000E+00
  0.00000000E+00  0.00000000E+00  0.00000000E+00
  0.00000000E+00  0.00000000E+00  0.00000000E+00
  0.00000000E+00  0.00000000E+00  0.00000000E+00
  0.00000000E+00  0.00000000E+00  0.00000000E+00
  0.00000000E+00  0.00000000E+00  0.00000000E+00
  0.00000000E+00  0.00000000E+00  0.00000000E+00
  0.00000000E+00  0.00000000E+00  0.00000000E+00
  0.00000000E+00  0.00000000E+00  0.00000000E+00
  0.00000000E+00  0.00000000E+00  0.00000000E+00
  0.00000000E+00  0.00000000E+00  0.00000000E+00
  0.00000000E+00  0.00000000E+00  0.00000000E+00
  0.00000000E+00  0.00000000E+00  0.00000000E+00
  0.00000000E+00  0.00000000E+00  0.00000000E+00
  0.00000000E+00  0.00000000E+00  0.00000000E+00
  0.00000000E+00  0.00000000E+00  0.00000000E+00
  0.00000000E+00  0.00000000E+00  0.00000000E+00
  0.00000000E+00  0.00000000E+00  0.00000000E+00
  0.00000000E+00  0.00000000E+00  0.00000000E+00
  0.00000000E+00  0.00000000E+00  0.00000000E+00
  0.00000000E+00  0.00000000E+00  0.00000000E+00
  0.00000000E+00  0.00000000E+00  0.00000000E+00
  0.00000000E+00  0.00000000E+00  0.00000000E+00
  0.00000000E+00  0.00000000E+00  0.00000000E+00
  0.00000000E+00  0.00000000E+00  0.00000000E+00
  0.00000000E+00  0.00000000E+00  0.00000000E+00
  0.00000000E+00  0.00000000E+00  0.00000000E+00
  0.00000000E+00  0.00000000E+00  0.00000000E+00
  0.00000000E+00  0.00000000E+00  0.00000000E+00
  0.00000000E+00  0.00000000E+00  0.00000000E+00
  0.00000000E+00  0.00000000E+00  0.00000000E+00
  0.00000000E+00  0.00000000E+00  0.00000000E+00
  0.00000000E+00  0.00000000E+00  0.00000000E+00
  0.00000000E+00  0.00000000E+00  0.00000000E+00
  0.00000000E+00  0.00000000E+00  0.00000000E+00
  0.00000000E+00  0.00000000E+00  0.00000000E+00
  0.00000000E+00  0.00000000E+00  0.00000000E+00
  0.00000000E+00  0.00000000E+00  0.00000000E+00
  0.00000000E+00  0.00000000E+00  0.00000000E+00
  0.00000000E+00  0.00000000E+00  0.00000000E+00
  0.00000000E+00  0.00000000E+00  0.00000000E+00
  0.00000000E+00  0.00000000E+00  0.00000000E+00
  0.00000000E+00  0.00000000E+00  0.00000000E+00
  0.00000000E+00  0.00000000E+00  0.00000000E+00
  0.00000000E+00  0.00000000E+00  0.00000000E+00
  0.00000000E+00  0.00000000E+00  0.00000000E+00
  0.00000000E+00  0.00000000E+00  0.00000000E+00
  0.00000000E+00  0.00000000E+00  0.00000000E+00
  0.00000000E+00  0.00000000E+00  0.00000000E+00
  0.00000000E+00  0.00000000E+00  0.00000000E+00
  0.00000000E+00  0.00000000E+00  0.00000000E+00
  0.00000000E+00  0.00000000E+00  0.00000000E+00
  0.00000000E+00  0.00000000E+00  0.00000000E+00
  0.00000000E+00  0.00000000E+00  0.00000000E+00
  0.00000000E+00  0.00000000E+00  0.00000000E+00
  0.00000000E+00  0.00000000E+00  0.00000000E+00
  0.00000000E+00  0.00000000E+00  0.00000000E+00
  0.00000000E+00  0.00000000E+00  0.00000000E+00
  0.00000000E+00  0.00000000E+00  0.00000000E+00
  0.00000000E+00  0.00000000E+00  0.00000000E+00
  0.00000000E+00  0.00000000E+00  0.00000000E+00
  0.00000000E+00  0.00000000E+00  0.00000000E+00
  0.00000000E+00  0.00000000E+00  0.00000000E+00
  0.00000000E+00  0.00000000E+00  0.00000000E+00
  0.00000000E+00  0.00000000E+00  0.00000000E+00
  0.00000000E+00  0.00000000E+00  0.00000000E+00
  0.00000000E+00  0.00000000E+00  0.00000000E+00
  0.00000000E+00  0.00000000E+00  0.00000000E+00
  0.00000000E+00  0.00000000E+00  0.00000000E+00
  0.00000000E+00  0.00000000E+00  0.00000000E+00
  0.00000000E+00  0.00000000E+00  0.00000000E+00
  0.00000000E+00  0.00000000E+00  0.00000000E+00
  0.00000000E+00  0.00000000E+00  0.00000000E+00
  0.00000000E+00  0.00000000E+00  0.00000000E+00
  0.00000000E+00  0.00000000E+00  0.00000000E+00
  0.00000000E+00  0.00000000E+00  0.00000000E+00
  0.00000000E+00  0.00000000E+00  0.00000000E+00
  0.00000000E+00  0.00000000E+00  0.00000000E+00
  0.00000000E+00  0.00000000E+00  0.00000000E+00
  0.00000000E+00  0.00000000E+00  0.00000000E+00
  0.00000000E+00  0.00000000E+00  0.00000000E+00
  0.00000000E+00  0.00000000E+00  0.00000000E+00
  0.00000000E+00  0.00000000E+00  0.00000000E+00
  0.00000000E+00  0.00000000E+00  0.00000000E+00
  0.00000000E+00  0.00000000E+00  0.00000000E+00
  0.00000000E+00  0.00000000E+00  0.00000000E+00
  0.00000000E+00  0.00000000E+00  0.00000000E+00
  0.00000000E+00  0.00000000E+00  0.00000000E+00
  0.00000000E+00  0.00000000E+00  0.00000000E+00
  0.00000000E+00  0.00000000E+00  0.00000000E+00
  0.00000000E+00  0.00000000E+00  0.00000000E+00
  0.00000000E+00  0.00000000E+00  0.00000000E+00
  0.00000000E+00  0.00000000E+00  0.00000000E+00
  0.00000000E+00  0.00000000E+00  0.00000000E+00
  0.00000000E+00  0.00000000E+00  0.00000000E+00
  0.00000000E+00  0.00000000E+00  0.00000000E+00
  0.00000000E+00  0.00000000E+00  0.00000000E+00
  0.00000000E+00  0.00000000E+00  0.00000000E+00
  0.00000000E+00  0.00000000E+00  0.00000000E+00
  0.00000000E+00  0.00000000E+00  0.00000000E+00
  0.00000000E+00  0.00000000E+00  0.00000000E+00
  0.00000000E+00  0.00000000E+00  0.00000000E+00
  0.00000000E+00  0.00000000E+00  0.00000000E+00
  0.00000000E+00  0.00000000E+00  0.00000000E+00
  0.00000000E+00  0.00000000E+00  0.00000000E+00
  0.00000000E+00  0.00000000E+00  0.00000000E+00
  0.00000000E+00  0.00000000E+00  0.00000000E+00
  0.00000000E+00  0.00000000E+00  0.00000000E+00
  0.00000000E+00  0.00000000E+00  0.00000000E+00
  0.00000000E+00  0.00000000E+00  0.00000000E+00
  0.00000000E+00  0.00000000E+00  0.00000000E+00
  0.00000000E+00  0.00000000E+00  0.00000000E+00
  0.00000000E+00  0.00000000E+00  0.00000000E+00
  0.00000000E+00  0.00000000E+00  0.00000000E+00
  0.00000000E+00  0.00000000E+00  0.00000000E+00
  0.00000000E+00  0.00000000E+00  0.00000000E+00
  0.00000000E+00  0.00000000E+00  0.00000000E+00
  0.00000000E+00  0.00000000E+00  0.00000000E+00
  0.00000000E+00  0.00000000E+00  0.00000000E+00
  0.00000000E+00  0.00000000E+00  0.00000000E+00
  0.00000000E+00  0.00000000E+00  0.00000000E+00
  0.00000000E+00  0.00000000E+00  0.00000000E+00
  0.00000000E+00  0.00000000E+00  0.00000000E+00
  0.00000000E+00  0.00000000E+00  0.00000000E+00
  0.00000000E+00  0.00000000E+00  0.00000000E+00
  0.00000000E+00  0.00000000E+00  0.00000000E+00
  0.00000000E+00  0.00000000E+00  0.00000000E+00
  0.00000000E+00  0.00000000E+00  0.00000000E+00
  0.00000000E+00  0.00000000E+00  0.00000000E+00
  0.00000000E+00  0.00000000E+00  0.00000000E+00
  0.00000000E+00  0.00000000E+00  0.00000000E+00
  0.00000000E+00  0.00000000E+00  0.00000000E+00
  0.00000000E+00  0.00000000E+00  0.00000000E+00
  0.00000000E+00  0.00000000E+00  0.00000000E+00
  0.00000000E+00  0.00000000E+00  0.00000000E+00
  0.00000000E+00  0.00000000E+00  0.00000000E+00
  0.00000000E+00  0.00000000E+00  0.00000000E+00
  0.00000000E+00  0.00000000E+00  0.00000000E+00
  0.00000000E+00  0.00000000E+00  0.00000000E+00
  0.00000000E+00  0.00000000E+00  0.00000000E+00
  0.00000000E+00  0.00000000E+00  0.00000000E+00
  0.00000000E+00  0.00000000E+00  0.00000000E+00
  0.00000000E+00  0.00000000E+00  0.00000000E+00
  0.00000000E+00  0.00000000E+00  0.00000000E+00
  0.00000000E+00  0.00000000E+00  0.00000000E+00
  0.00000000E+00  0.00000000E+00  0.00000000E+00
  0.00000000E+00  0.00000000E+00  0.00000000E+00
  0.00000000E+00  0.00000000E+00  0.00000000E+00
  0.00000000E+00  0.00000000E+00  0.00000000E+00
  0.00000000E+00  0.00000000E+00  0.00000000E+00
  0.00000000E+00  0.00000000E+00  0.00000000E+00
  0.00000000E+00  0.00000000E+00  0.00000000E+00
  0.00000000E+00  0.00000000E+00  0.00000000E+00
  0.00000000E+00  0.00000000E+00  0.00000000E+00
  0.00000000E+00  0.00000000E+00  0.00000000E+00
  0.00000000E+00  0.00000000E+00  0.00000000E+00
  0.00000000E+00  0.00000000E+00  0.00000000E+00
  0.00000000E+00  0.00000000E+00  0.00000000E+00
  0.00000000E+00  0.00000000E+00  0.00000000E+00
  0.00000000E+00  0.00000000E+00  0.00000000E+00
  0.00000000E+00  0.00000000E+00  0.00000000E+00
  0.00000000E+00  0.00000000E+00  0.00000000E+00
  0.00000000E+00  0.00000000E+00  0.00000000E+00
  0.00000000E+00  0.00000000E+00  0.00000000E+00
  0.00000000E+00  0.00000000E+00  0.00000000E+00
  0.00000000E+00  0.00000000E+00  0.00000000E+00
  0.00000000E+00  0.00000000E+00  0.00000000E+00
  0.00000000E+00  0.00000000E+00  0.00000000E+00
  0.00000000E+00  0.00000000E+00  0.00000000E+00
  0.00000000E+00  0.00000000E+00  0.00000000E+00
  0.00000000E+00  0.00000000E+00  0.00000000E+00
