New POSCAR file                         
   1.00000000000000     
    16.0260819999999988    0.0000000000000000    0.0000000000000000
     0.0000000000000000   16.1000000000000014    0.0000000000000000
     0.0000000000000000    0.0000000000000000   16.4253670000000014
   Li   P    S    Cl
    96    16    80    16
Direct
  0.7153463959562885  0.8519565217391332  0.1789883903355118
  0.5726964332267883  0.6634223602484468  0.0203915078427173
  0.6884215368422559  0.6221987577639752  0.1994616010710715
  0.8208930916489763  0.9235403726708071  0.0221947552222090
  0.5750151534230241  0.7792546583850921  0.2854079303068247
  0.9153578522810477  0.7514285714285691  0.9417445588887006
  0.2196282285339635  0.0450086335403697  0.0285536390145822
  0.2176558188083675  0.8789813664596267  0.2966551675831681
  0.1146337576458194  0.0033159006211179  0.3397336570927152
  0.2320379990567858  0.7466335403726703  0.0451749419054082
  0.0895945746440105  0.6945341614906866  0.8871399951063523
  0.3155786922842410  0.8435714285714297  0.4257475647271676
  0.3816927930357537  0.4789931677018657  0.6121994108259514
  0.5370139750938492  0.8086770186335386  0.5183957229083518
  0.7070349446608333  0.8710559006211156  0.7597273168995216
  0.3468801669678214  0.6337080745341623  0.4323404158945152
  0.7129191027476338  0.5129962732919253  0.7529755651730667
  0.1641106042013263  0.7234658385093198  0.6409232743475357
  0.9834218993762818  0.9056521739130403  0.8692104109454633
  0.9204994708001593  0.4763304347826107  0.9600150791151236
  0.1698643498766543  0.4817242236024839  0.6801552744605317
  0.4813047880324106  0.8817639751552804  0.8582517516960166
  0.0130165314267074  0.6336645962732916  0.7356852361350619
  0.8669804634719824  0.5857826086956521  0.8465320744431466
  0.3444247945318111  0.4629546583850939  0.8744157740889449
  0.0762962525712751  0.5155813664596280  0.8594084990612387
  0.2571408283072572  0.6067161490683262  0.8340635554748914
  0.4095904413817451  0.7041801242236048  0.9299457357634680
  0.0575786396200897  0.3125894409937899  0.6981152993415591
  0.5430154419526900  0.6562111801242239  0.7620712523500970
  0.2880167467007837  0.2936037267080778  0.0541829598084504
  0.3662436021480460  0.1868484472049659  0.1414665498798300
  0.4472353255149955  0.0611247826086938  0.0492338466470770
  0.4392938960377251  0.3042577639751585  0.0235363386401062
  0.6432826189208285  0.3731086956521708  0.1907939104191740
  0.0648536554349306  0.1655745341614931  0.1266857538099444
  0.8119888566650317  0.0968360248447198  0.4926057359935996
  0.7903678516059003  0.3161093167701878  0.6662377772137447
  0.6051266928498151  0.0166232919254625  0.9220981181120607
  0.5717535951706694  0.2954304347826096  0.6663899808144294
  0.8722156794155893  0.1667472049689422  0.7976564541906441
  0.7721475529702175  0.3130322981366476  0.8741539838957664
  0.4880144754032827  0.2302161490683261  0.3508865281366340
  0.2316842007921807  0.9938944099378872  0.7123432919337489
  0.3364995886081203  0.0754304347826107  0.3320644220613147
  0.9743803881697346  0.1417726708074554  0.6525881583041624
  0.4014537052786835  0.9877267080745327  0.5054766812820688
  0.9640534723334113  0.3229416149068314  0.4389119585577603
  0.3789416527383267  0.4181503105590068  0.4088194802587992
  0.0194722577857789  0.2258763975155276  0.2890151556430993
  0.1946545637293013  0.2685130434782579  0.3078932726434687
  0.9654199947310858  0.3826627329192576  0.2142369178113341
  0.1253150957295759  0.4739310559006213  0.3129683495047644
  0.2625557513059036  0.4846291925465849  0.1854765254255781
  0.7826117450291363  0.6039360248447210  0.3261540518394526
  0.1097124050656930  0.5764080745341644  0.0849728350057575
  0.8028911870037874  0.4602894409937903  0.1148223963580222
  0.0976776482236872  0.6964906832298112  0.2817422587878866
  0.9576077296996246  0.6550745341614927  0.0536542653811054
  0.1163596941535658  0.4237142857142828  0.4653892969332105
  0.4239002396218865  0.0367203726708070  0.7468448041374032
  0.3374467945440429  0.9427142857142883  0.9102262372585059
  0.3789297970645578  0.8802484472049699  0.6456781148329895
  0.0917348357508700  0.8174596273291925  0.7249579263586625
  0.2318096213410143  0.8399378881987545  0.8626778324039890
  0.3227264156017640  0.7369068322981391  0.7445191331189136
  0.0592825495339397  0.8299316770186351  0.4622338118837774
  0.9099167220035440  0.9414534161490664  0.5014986879745180
  0.9047875831410295  0.7741677018633553  0.2378771810699902
  0.9039701656337442  0.7261366459627325  0.5166569489741093
  0.7893569994213152  0.7675279503105585  0.4109509394828166
  0.7200200273529092  0.1050037267080768  0.6956617772984899
  0.9850692140474493  0.3154478260869595  0.8628909174449504
  0.3943103498409641  0.1621211180124220  0.8565775120884638
  0.1253026160729718  0.1547788819875748  0.8470860955496491
  0.2555471761594603  0.3274645962732947  0.7848835280210196
  0.1106933060744382  0.8694223602484499  0.0583833530173195
  0.2092644977106701  0.4517161490683250  0.9543774577456929
  0.5633697618669373  0.4144074534161462  0.3873959102405422
  0.5108054482686413  0.5626130434782581  0.1302929791462191
  0.7194709224625200  0.2393981366459599  0.3288267470675095
  0.5149156231697773  0.5977534161490681  0.3056668383726233
  0.4244037937656842  0.7281801242236057  0.2448225357765210
  0.7528602436952454  0.4204975155279485  0.3548079017047243
  0.8036150070865702  0.0495522360248444  0.2644379270186192
  0.5053012957253031  0.8842111801242254  0.1385539817770862
  0.6529106739875630  0.6538509316770202  0.3986778499378403
  0.7004768851176451  0.9371118012422386  0.3351298025791465
  0.4826475990825472  0.0280986956521758  0.2504144960657513
  0.5415141392637324  0.9530931677018657  0.3719758590477795
  0.3642842960618822  0.2273540372670837  0.7174086277646055
  0.8304462687761145  0.5337751552794998  0.5576064145172523
  0.5528107244178599  0.0821590062111781  0.7284525210304267
  0.1903777854125579  0.1809037267080740  0.6443813401551424
  0.5841683575561376  0.0959559006211208  0.4703505255011962
  0.5997616884775709  0.2011633540372699  0.8476340285121182
  0.7016062940399266  0.9293354037267108  0.5760321824163839
  0.6323067609413187  0.6932422360248438  0.6063359193130964
  0.3534120192321524  0.2950509316770180  0.2254068356585250
  0.2214901932986493  0.9542173913043470  0.5233569514763374
  0.9326047377019506  0.5619360248447194  0.3814410965672792
  0.9005694592103026  0.4412459627329213  0.7278802354918454
  0.5235016269104307  0.3329279503105624  0.5770464672113533
  0.1021335096126421  0.5981186335403734  0.5257410686774904
  0.6063946259603554  0.1139670807453399  0.2444237623427199
  0.7846272095699973  0.0066652173913013  0.8542822817901126
  0.9233760316464128  0.8508695652173941  0.1279892254462283
  0.3453744963990601  0.5384677018633539  0.0534496428603362
  0.8400431247013458  0.2525490683229847  0.1767089892116260
  0.6681670541808060  0.4814968944099363  0.9802885987265881
  0.2696878750526821  0.6626583850931667  0.2611856404791411
  0.5149012715646890  0.3954503105590064  0.8417894102457524
  0.6913105773451065  0.0532896273291925  0.5649097520926034
  0.6530354705535615  0.8794658385093186  0.4543454036673893
  0.6021128557809732  0.8666273291925464  0.6548894767465470
  0.7940930291009352  0.8661428571428544  0.6243330818726918
  0.6780821413493356  0.6749751552795047  0.7140175315413018
  0.7222538858842711  0.7326273291925460  0.2933042531104491
  0.4977030568045251  0.9621242236024869  0.6296723841847793
  0.4995725093631762  0.6829316770186367  0.4184813648303845
  0.4289981793428979  0.4013913043478254  0.1804014485642824
  0.3457906929466574  0.2791683229813628  0.3496737698463619
  0.1123668280244701  0.1388577639751531  0.2561653569140958
  0.2355167033339782  0.3358136645962730  0.1874387342456316
  0.2473592734643404  0.9708819875776413  0.4026570608741977
  0.2796572487274176  0.0594348447204993  0.5809033064527540
  0.2776018492854320  0.8364161490683202  0.5631685429007476
  0.0852036074693743  0.9478012422360251  0.5257909914585142
  0.9019047824664810  0.4539478260869529  0.4257025124613634
  0.6622828960940055  0.5303428571428555  0.3139065324993950
  0.0669714531599155  0.5912310559006215  0.3945659174616907
  0.6801537643448938  0.3131881987577643  0.4322271764156014
  0.8628496971374560  0.4072422360248424  0.8494848242964679
  0.0240291419949088  0.4364515527950275  0.7605431281992026
  0.8663689602985940  0.5538074534161481  0.7092383384797429
  0.6704945101366633  0.4980515527950331  0.5450916256543934
  0.5833241087871599  0.5859602484472077  0.5868130678602199
  0.4837682722452072  0.4302950310558984  0.5187074358825612
  0.4153248435893460  0.2454428571428551  0.5789849322697052
  0.5769900590799395  0.2640000000000029  0.4731869918035940
  0.0322205389938759  0.6979006211180092  0.5667307159712180
  0.3476963365094505  0.6505900621118030  0.5889366124970010
  0.0621139340233015  0.4975819875776395  0.5850219358873403
  0.1710954680002246  0.7169503105590067  0.7699127818574780
  0.4660671273240737  0.0776571428571415  0.3949385118761697
  0.6875479608802735  0.0977590062111773  0.1580086460168602
  0.6783379743096276  0.0832447204968929  0.3553795784289022
  0.5864802139412504  0.2374124223602507  0.2577586242060832
  0.7562671899469890  0.0993807453416125  0.9318269722679560
  0.6753615762105767  0.9994409937888165  0.7904420035180948
  0.8033154953281780  0.8933354037267094  0.8948293210130416
  0.8785553449682837  0.0323591925465863  0.7730907930398132
  0.8229397553313405  0.9408322981366481  0.1544531699048193
  0.9149397837849591  0.5747478260869556  0.2528856737264960
  0.9798963963868417  0.8987515527950336  0.0234616979943283
  0.8369668893494975  0.7616273291925495  0.0627681561087812
  0.3689042649351251  0.5799664596273288  0.2813678379301976
  0.4550962612072027  0.5721037267080717  0.9868211772680624
  0.2454517579530702  0.6030763975155295  0.9845381232577637
  0.3286118216542278  0.4124857142857152  0.0117705741369463
  0.8539641816384034  0.1931565217391338  0.2879899121888698
  0.7374478677945149  0.2149658385093147  0.1114611320404606
  0.9523600340994136  0.2590968944099359  0.1172314749496906
  0.8156453960487653  0.3758913043478245  0.2271949235593951
  0.6431453426982330  0.5057962732919279  0.1009073343688485
  0.5924604653838657  0.3888236024844716  0.9545174850583251
  0.7864554792618677  0.4088186335403705  0.0058329716468464
  0.7122951199176413  0.5725708074534168  0.9173798064907785
  0.1685752013499027  0.5887055900621121  0.2205332763645416
  0.2954758374504749  0.7618136645962750  0.1814534798522303
  0.4489381746580321  0.7922857142857112  0.3659193733692518
  0.2365724822823196  0.7074161490683224  0.3729828380699161
  0.5010189015630928  0.2921161490683204  0.7994646329668029
  0.7050381996048714  0.4243968944099379  0.6503720738781666
  0.5087974715217385  0.0898111801242223  0.8619533432647160
  0.5587454251138837  0.4728254658385111  0.7594959674264814
  0.5421200265916539  0.7018322981366438  0.1694531391596925
  0.2315456766039290  0.8877142857142886  0.0020545964056708
  0.4366020341091499  0.7292111801242243  0.6315657969773198
  0.9746798999281268  0.6124701863354005  0.9162291472695827
  0.2268620614820236  0.4682173913043499  0.8045177925095999
  0.3801821306043465  0.1803987577639745  0.9998437173428130
  0.7211743955883918  0.2418173913043447  0.7532069146461069
  0.2581897434444684  0.1683602484472075  0.7724698023490149
  0.0581317380005899  0.3553782608695641  0.3369879041363291
  0.9712791935046852  0.5183993788819876  0.1221531305814949
  0.3406465784962265  0.9074658385093173  0.7815533132379926
  0.9096172102451519  0.8144782608695635  0.4018972604995668
  0.0066565240337582  0.2117838509316741  0.7887860283426207
  0.5250553441571029  0.4340428571428561  0.2524838562206853
  0.5865881629708340  0.9139813664596304  0.2373633417140724
  0.4698509592051252  0.1340192546583836  0.6267683394836752
  0.5347751246998484  0.9373354037267063  0.0137078824479246
  0.3740115643985860  0.0265134782608669  0.1586746889734627
  0.2358767414268783  0.4560857142857131  0.4305011875838147
  0.5408146545113155  0.7684409937888219  0.8863789771029147
  0.3883026431538283  0.6342049689440969  0.7937600420130622
  0.1560331464671165  0.1605397515527969  0.9914542548729628
  0.8662129645910994  0.2104503105590041  0.5577689679627866
  0.0911601475644517  0.2502093167701887  0.5764851403320250
  0.0823488860221744  0.7267142857142872  0.0634561163838825
  0.0752741686957563  0.8471863354037268  0.2762878905536752
  0.1041502221191664  0.9528509316770197  0.7755443150828825
  0.9546063722873726  0.7974285714285685  0.7755504032269087
  0.0699958979368773  0.4273204968944100  0.9627912727916552
  0.7792172784339897  0.6655838509316752  0.4981782142219373
  0.8973060290094637  0.0171708074534180  0.3926499785362481
  0.2660182320295164  0.3884080745341620  0.6302203171472485
 
  0.00000000E+00  0.00000000E+00  0.00000000E+00
  0.00000000E+00  0.00000000E+00  0.00000000E+00
  0.00000000E+00  0.00000000E+00  0.00000000E+00
  0.00000000E+00  0.00000000E+00  0.00000000E+00
  0.00000000E+00  0.00000000E+00  0.00000000E+00
  0.00000000E+00  0.00000000E+00  0.00000000E+00
  0.00000000E+00  0.00000000E+00  0.00000000E+00
  0.00000000E+00  0.00000000E+00  0.00000000E+00
  0.00000000E+00  0.00000000E+00  0.00000000E+00
  0.00000000E+00  0.00000000E+00  0.00000000E+00
  0.00000000E+00  0.00000000E+00  0.00000000E+00
  0.00000000E+00  0.00000000E+00  0.00000000E+00
  0.00000000E+00  0.00000000E+00  0.00000000E+00
  0.00000000E+00  0.00000000E+00  0.00000000E+00
  0.00000000E+00  0.00000000E+00  0.00000000E+00
  0.00000000E+00  0.00000000E+00  0.00000000E+00
  0.00000000E+00  0.00000000E+00  0.00000000E+00
  0.00000000E+00  0.00000000E+00  0.00000000E+00
  0.00000000E+00  0.00000000E+00  0.00000000E+00
  0.00000000E+00  0.00000000E+00  0.00000000E+00
  0.00000000E+00  0.00000000E+00  0.00000000E+00
  0.00000000E+00  0.00000000E+00  0.00000000E+00
  0.00000000E+00  0.00000000E+00  0.00000000E+00
  0.00000000E+00  0.00000000E+00  0.00000000E+00
  0.00000000E+00  0.00000000E+00  0.00000000E+00
  0.00000000E+00  0.00000000E+00  0.00000000E+00
  0.00000000E+00  0.00000000E+00  0.00000000E+00
  0.00000000E+00  0.00000000E+00  0.00000000E+00
  0.00000000E+00  0.00000000E+00  0.00000000E+00
  0.00000000E+00  0.00000000E+00  0.00000000E+00
  0.00000000E+00  0.00000000E+00  0.00000000E+00
  0.00000000E+00  0.00000000E+00  0.00000000E+00
  0.00000000E+00  0.00000000E+00  0.00000000E+00
  0.00000000E+00  0.00000000E+00  0.00000000E+00
  0.00000000E+00  0.00000000E+00  0.00000000E+00
  0.00000000E+00  0.00000000E+00  0.00000000E+00
  0.00000000E+00  0.00000000E+00  0.00000000E+00
  0.00000000E+00  0.00000000E+00  0.00000000E+00
  0.00000000E+00  0.00000000E+00  0.00000000E+00
  0.00000000E+00  0.00000000E+00  0.00000000E+00
  0.00000000E+00  0.00000000E+00  0.00000000E+00
  0.00000000E+00  0.00000000E+00  0.00000000E+00
  0.00000000E+00  0.00000000E+00  0.00000000E+00
  0.00000000E+00  0.00000000E+00  0.00000000E+00
  0.00000000E+00  0.00000000E+00  0.00000000E+00
  0.00000000E+00  0.00000000E+00  0.00000000E+00
  0.00000000E+00  0.00000000E+00  0.00000000E+00
  0.00000000E+00  0.00000000E+00  0.00000000E+00
  0.00000000E+00  0.00000000E+00  0.00000000E+00
  0.00000000E+00  0.00000000E+00  0.00000000E+00
  0.00000000E+00  0.00000000E+00  0.00000000E+00
  0.00000000E+00  0.00000000E+00  0.00000000E+00
  0.00000000E+00  0.00000000E+00  0.00000000E+00
  0.00000000E+00  0.00000000E+00  0.00000000E+00
  0.00000000E+00  0.00000000E+00  0.00000000E+00
  0.00000000E+00  0.00000000E+00  0.00000000E+00
  0.00000000E+00  0.00000000E+00  0.00000000E+00
  0.00000000E+00  0.00000000E+00  0.00000000E+00
  0.00000000E+00  0.00000000E+00  0.00000000E+00
  0.00000000E+00  0.00000000E+00  0.00000000E+00
  0.00000000E+00  0.00000000E+00  0.00000000E+00
  0.00000000E+00  0.00000000E+00  0.00000000E+00
  0.00000000E+00  0.00000000E+00  0.00000000E+00
  0.00000000E+00  0.00000000E+00  0.00000000E+00
  0.00000000E+00  0.00000000E+00  0.00000000E+00
  0.00000000E+00  0.00000000E+00  0.00000000E+00
  0.00000000E+00  0.00000000E+00  0.00000000E+00
  0.00000000E+00  0.00000000E+00  0.00000000E+00
  0.00000000E+00  0.00000000E+00  0.00000000E+00
  0.00000000E+00  0.00000000E+00  0.00000000E+00
  0.00000000E+00  0.00000000E+00  0.00000000E+00
  0.00000000E+00  0.00000000E+00  0.00000000E+00
  0.00000000E+00  0.00000000E+00  0.00000000E+00
  0.00000000E+00  0.00000000E+00  0.00000000E+00
  0.00000000E+00  0.00000000E+00  0.00000000E+00
  0.00000000E+00  0.00000000E+00  0.00000000E+00
  0.00000000E+00  0.00000000E+00  0.00000000E+00
  0.00000000E+00  0.00000000E+00  0.00000000E+00
  0.00000000E+00  0.00000000E+00  0.00000000E+00
  0.00000000E+00  0.00000000E+00  0.00000000E+00
  0.00000000E+00  0.00000000E+00  0.00000000E+00
  0.00000000E+00  0.00000000E+00  0.00000000E+00
  0.00000000E+00  0.00000000E+00  0.00000000E+00
  0.00000000E+00  0.00000000E+00  0.00000000E+00
  0.00000000E+00  0.00000000E+00  0.00000000E+00
  0.00000000E+00  0.00000000E+00  0.00000000E+00
  0.00000000E+00  0.00000000E+00  0.00000000E+00
  0.00000000E+00  0.00000000E+00  0.00000000E+00
  0.00000000E+00  0.00000000E+00  0.00000000E+00
  0.00000000E+00  0.00000000E+00  0.00000000E+00
  0.00000000E+00  0.00000000E+00  0.00000000E+00
  0.00000000E+00  0.00000000E+00  0.00000000E+00
  0.00000000E+00  0.00000000E+00  0.00000000E+00
  0.00000000E+00  0.00000000E+00  0.00000000E+00
  0.00000000E+00  0.00000000E+00  0.00000000E+00
  0.00000000E+00  0.00000000E+00  0.00000000E+00
  0.00000000E+00  0.00000000E+00  0.00000000E+00
  0.00000000E+00  0.00000000E+00  0.00000000E+00
  0.00000000E+00  0.00000000E+00  0.00000000E+00
  0.00000000E+00  0.00000000E+00  0.00000000E+00
  0.00000000E+00  0.00000000E+00  0.00000000E+00
  0.00000000E+00  0.00000000E+00  0.00000000E+00
  0.00000000E+00  0.00000000E+00  0.00000000E+00
  0.00000000E+00  0.00000000E+00  0.00000000E+00
  0.00000000E+00  0.00000000E+00  0.00000000E+00
  0.00000000E+00  0.00000000E+00  0.00000000E+00
  0.00000000E+00  0.00000000E+00  0.00000000E+00
  0.00000000E+00  0.00000000E+00  0.00000000E+00
  0.00000000E+00  0.00000000E+00  0.00000000E+00
  0.00000000E+00  0.00000000E+00  0.00000000E+00
  0.00000000E+00  0.00000000E+00  0.00000000E+00
  0.00000000E+00  0.00000000E+00  0.00000000E+00
  0.00000000E+00  0.00000000E+00  0.00000000E+00
  0.00000000E+00  0.00000000E+00  0.00000000E+00
  0.00000000E+00  0.00000000E+00  0.00000000E+00
  0.00000000E+00  0.00000000E+00  0.00000000E+00
  0.00000000E+00  0.00000000E+00  0.00000000E+00
  0.00000000E+00  0.00000000E+00  0.00000000E+00
  0.00000000E+00  0.00000000E+00  0.00000000E+00
  0.00000000E+00  0.00000000E+00  0.00000000E+00
  0.00000000E+00  0.00000000E+00  0.00000000E+00
  0.00000000E+00  0.00000000E+00  0.00000000E+00
  0.00000000E+00  0.00000000E+00  0.00000000E+00
  0.00000000E+00  0.00000000E+00  0.00000000E+00
  0.00000000E+00  0.00000000E+00  0.00000000E+00
  0.00000000E+00  0.00000000E+00  0.00000000E+00
  0.00000000E+00  0.00000000E+00  0.00000000E+00
  0.00000000E+00  0.00000000E+00  0.00000000E+00
  0.00000000E+00  0.00000000E+00  0.00000000E+00
  0.00000000E+00  0.00000000E+00  0.00000000E+00
  0.00000000E+00  0.00000000E+00  0.00000000E+00
  0.00000000E+00  0.00000000E+00  0.00000000E+00
  0.00000000E+00  0.00000000E+00  0.00000000E+00
  0.00000000E+00  0.00000000E+00  0.00000000E+00
  0.00000000E+00  0.00000000E+00  0.00000000E+00
  0.00000000E+00  0.00000000E+00  0.00000000E+00
  0.00000000E+00  0.00000000E+00  0.00000000E+00
  0.00000000E+00  0.00000000E+00  0.00000000E+00
  0.00000000E+00  0.00000000E+00  0.00000000E+00
  0.00000000E+00  0.00000000E+00  0.00000000E+00
  0.00000000E+00  0.00000000E+00  0.00000000E+00
  0.00000000E+00  0.00000000E+00  0.00000000E+00
  0.00000000E+00  0.00000000E+00  0.00000000E+00
  0.00000000E+00  0.00000000E+00  0.00000000E+00
  0.00000000E+00  0.00000000E+00  0.00000000E+00
  0.00000000E+00  0.00000000E+00  0.00000000E+00
  0.00000000E+00  0.00000000E+00  0.00000000E+00
  0.00000000E+00  0.00000000E+00  0.00000000E+00
  0.00000000E+00  0.00000000E+00  0.00000000E+00
  0.00000000E+00  0.00000000E+00  0.00000000E+00
  0.00000000E+00  0.00000000E+00  0.00000000E+00
  0.00000000E+00  0.00000000E+00  0.00000000E+00
  0.00000000E+00  0.00000000E+00  0.00000000E+00
  0.00000000E+00  0.00000000E+00  0.00000000E+00
  0.00000000E+00  0.00000000E+00  0.00000000E+00
  0.00000000E+00  0.00000000E+00  0.00000000E+00
  0.00000000E+00  0.00000000E+00  0.00000000E+00
  0.00000000E+00  0.00000000E+00  0.00000000E+00
  0.00000000E+00  0.00000000E+00  0.00000000E+00
  0.00000000E+00  0.00000000E+00  0.00000000E+00
  0.00000000E+00  0.00000000E+00  0.00000000E+00
  0.00000000E+00  0.00000000E+00  0.00000000E+00
  0.00000000E+00  0.00000000E+00  0.00000000E+00
  0.00000000E+00  0.00000000E+00  0.00000000E+00
  0.00000000E+00  0.00000000E+00  0.00000000E+00
  0.00000000E+00  0.00000000E+00  0.00000000E+00
  0.00000000E+00  0.00000000E+00  0.00000000E+00
  0.00000000E+00  0.00000000E+00  0.00000000E+00
  0.00000000E+00  0.00000000E+00  0.00000000E+00
  0.00000000E+00  0.00000000E+00  0.00000000E+00
  0.00000000E+00  0.00000000E+00  0.00000000E+00
  0.00000000E+00  0.00000000E+00  0.00000000E+00
  0.00000000E+00  0.00000000E+00  0.00000000E+00
  0.00000000E+00  0.00000000E+00  0.00000000E+00
  0.00000000E+00  0.00000000E+00  0.00000000E+00
  0.00000000E+00  0.00000000E+00  0.00000000E+00
  0.00000000E+00  0.00000000E+00  0.00000000E+00
  0.00000000E+00  0.00000000E+00  0.00000000E+00
  0.00000000E+00  0.00000000E+00  0.00000000E+00
  0.00000000E+00  0.00000000E+00  0.00000000E+00
  0.00000000E+00  0.00000000E+00  0.00000000E+00
  0.00000000E+00  0.00000000E+00  0.00000000E+00
  0.00000000E+00  0.00000000E+00  0.00000000E+00
  0.00000000E+00  0.00000000E+00  0.00000000E+00
  0.00000000E+00  0.00000000E+00  0.00000000E+00
  0.00000000E+00  0.00000000E+00  0.00000000E+00
  0.00000000E+00  0.00000000E+00  0.00000000E+00
  0.00000000E+00  0.00000000E+00  0.00000000E+00
  0.00000000E+00  0.00000000E+00  0.00000000E+00
  0.00000000E+00  0.00000000E+00  0.00000000E+00
  0.00000000E+00  0.00000000E+00  0.00000000E+00
  0.00000000E+00  0.00000000E+00  0.00000000E+00
  0.00000000E+00  0.00000000E+00  0.00000000E+00
  0.00000000E+00  0.00000000E+00  0.00000000E+00
  0.00000000E+00  0.00000000E+00  0.00000000E+00
  0.00000000E+00  0.00000000E+00  0.00000000E+00
  0.00000000E+00  0.00000000E+00  0.00000000E+00
  0.00000000E+00  0.00000000E+00  0.00000000E+00
  0.00000000E+00  0.00000000E+00  0.00000000E+00
  0.00000000E+00  0.00000000E+00  0.00000000E+00
  0.00000000E+00  0.00000000E+00  0.00000000E+00
  0.00000000E+00  0.00000000E+00  0.00000000E+00
  0.00000000E+00  0.00000000E+00  0.00000000E+00
  0.00000000E+00  0.00000000E+00  0.00000000E+00
  0.00000000E+00  0.00000000E+00  0.00000000E+00
  0.00000000E+00  0.00000000E+00  0.00000000E+00
  0.00000000E+00  0.00000000E+00  0.00000000E+00
  0.00000000E+00  0.00000000E+00  0.00000000E+00
