New POSCAR file
1
16.026082 0.0 0.0
0.0 16.1 0.0
0.0 0.0 16.425367
Li P S Cl
96 16 80 16
Cartesian
11.4642 13.7165 2.93995
9.17808 10.6811 0.334938
11.0327 10.0174 3.27623
13.1557 14.869 0.364557
9.21524 12.546 4.68793
14.6696 12.098 15.4685
3.51978 0.724639 0.469004
3.48817 14.1516 4.87267
1.83713 0.053386 5.58025
3.71866 12.0208 0.742015
1.43585 11.182 14.5716
5.05749 13.5815 6.99306
6.11704 7.71179 10.0556
8.60623 13.0197 8.51484
11.331 14.024 12.4788
5.55913 10.2027 7.10135
11.4253 8.25924 12.3679
2.63005 11.6478 10.5274
15.7604 14.581 14.2771
14.752 7.66892 15.7686
2.72226 7.75576 11.1718
7.71343 14.1964 14.0971
0.208604 10.202 12.0839
13.8943 9.4311 13.9046
5.51978 7.45357 14.3626
1.22273 8.30086 14.1161
4.12096 9.76813 13.6998
6.56413 11.3373 15.2747
0.92276 5.03269 11.4668
8.70241 10.565 12.5173
4.61578 4.72702 0.889975
5.86945 3.00826 2.32364
7.16743 0.984109 0.808684
7.04016 4.89855 0.386593
10.3093 6.00705 3.13386
1.03935 2.66575 2.08086
13.013 1.55906 8.09123
12.6665 5.08936 10.9432
9.69781 0.267635 15.1458
9.16297 4.75643 10.9457
13.9782 2.68463 13.1018
12.3745 5.03982 14.3583
7.82096 3.70648 5.76344
3.71299 16.0017 11.7005
5.39277 1.21443 5.45428
15.6155 2.28254 10.719
6.43373 15.9024 8.30264
15.45 5.19936 7.20929
6.07295 6.73222 6.71501
0.312064 3.63661 4.74718
3.11955 4.32306 5.05726
15.4719 6.16087 3.51892
2.00831 7.63029 5.14062
4.20774 7.80253 3.04652
12.5422 9.72337 5.3572
1.75826 9.28017 1.39571
12.8672 7.41066 1.886
1.56539 11.2135 4.62772
15.3467 10.5467 0.881291
1.86479 6.8218 7.64419
6.79346 0.591198 12.2672
5.40795 15.1777 14.9508
6.07276 14.172 10.6055
1.47015 13.1611 11.9077
3.715 13.523 14.1698
5.17204 11.8642 12.229
0.950067 13.3619 7.59236
14.5824 15.1574 8.2373
14.5002 12.4641 3.90722
14.4871 11.6908 8.48628
12.6503 12.3572 6.75002
11.5391 1.69056 11.4265
15.7868 5.07871 14.1733
6.31925 2.61015 14.0696
2.00811 2.49194 13.9137
4.09542 5.27218 12.892
1.77398 13.9977 0.958968
3.35369 7.27263 15.676
9.02861 6.67196 6.36312
8.18621 9.05807 2.14011
11.5303 3.85431 5.4011
8.25208 9.62383 5.02069
6.80153 11.7237 4.0213
12.0654 6.77001 5.82785
12.8788 0.797791 4.34349
8.098 14.2358 2.2758
10.4636 10.527 6.54843
11.2259 15.0875 5.50463
7.73495 0.452389 4.11315
8.67835 15.3448 6.10984
5.83805 3.6604 11.7837
13.3088 8.59378 9.15889
8.85939 1.32276 11.9651
3.05101 2.91255 10.5842
9.36193 1.54489 7.72568
9.61183 3.23873 13.9227
11.244 14.9623 9.46154
10.1334 11.1612 9.95929
5.66381 4.75032 3.70239
3.54962 15.3629 8.59633
14.946 9.04717 6.26531
14.4326 7.10406 11.9557
8.38968 5.36014 9.4782
1.6368 9.62971 8.63549
9.71813 1.83487 4.01475
12.5745 0.10731 14.0319
14.7981 13.699 2.10227
5.535 8.66933 0.87793
13.4626 4.06604 2.90251
10.7081 7.7521 16.1016
4.32204 10.6688 4.29007
8.25185 6.36675 13.8267
11.079 0.857963 9.27885
10.4656 14.1594 7.46279
9.64951 13.9527 10.7568
12.7262 13.9449 10.2549
10.867 10.8671 11.728
11.5749 11.7953 4.81763
7.97623 15.4902 10.3426
8.00619 10.9952 6.87371
6.87516 6.4624 2.96316
5.54167 4.49461 5.74352
1.8008 2.23561 4.20761
3.77441 5.4066 3.07875
3.9642 15.6312 6.61379
4.48181 0.956901 9.54155
4.44887 13.4663 9.25025
1.36548 15.2596 8.63631
14.454 7.30856 6.99232
10.6138 8.53852 5.15603
1.07329 9.51882 6.48089
10.9002 5.04233 7.09949
13.8281 6.5566 13.9531
0.385093 7.02687 12.4922
13.8845 8.9163 11.6495
10.7454 8.01863 8.95333
9.3484 9.43396 9.63862
7.75291 6.92775 8.51996
6.65603 3.95163 9.51004
9.24689 4.2504 7.77227
0.516369 11.2362 9.30876
5.57221 10.4745 9.6735
0.995443 8.01107 9.6092
2.74199 11.5429 12.6461
7.46923 1.25028 6.48701
11.0187 1.57392 2.59535
10.8711 1.34024 5.83724
9.39898 3.82234 4.23378
12.12 1.60003 15.3056
10.8234 16.091 12.9833
12.874 14.3827 14.6979
14.0798 0.520983 12.6983
13.1885 15.1474 2.53695
14.6629 9.25344 4.15374
15.7039 14.4699 0.385367
13.4133 12.2622 1.03099
5.91209 9.33746 4.62157
7.29341 9.21087 16.2089
3.93363 9.70953 16.1714
5.26636 6.64102 0.193336
13.6857 3.10982 4.73034
11.8184 3.46095 1.83079
15.2626 4.17146 1.92557
13.0716 6.05185 3.73176
10.3071 8.14332 1.65744
9.49482 6.26006 15.6783
12.6038 6.58198 0.0958087
11.4153 9.21839 15.0683
2.7016 9.47816 3.62234
4.73532 12.2652 2.98044
7.19472 12.7558 6.01036
3.79133 11.3894 6.12638
8.02937 4.70307 13.1315
11.299 6.83279 10.6826
8.15403 1.44596 14.1579
8.9545 7.61249 12.475
8.68806 11.2995 2.78333
3.71077 14.2922 0.0337475
6.99702 11.7403 10.3737
15.6203 9.86077 15.0494
3.63571 7.5383 13.2145
6.09283 2.90442 16.4228
11.5576 3.89326 12.3717
4.13777 2.7106 12.6881
0.931624 5.72159 5.53515
15.5658 8.34623 2.00641
5.45923 14.6102 12.8373
14.5776 13.1131 6.60131
0.106678 3.40972 12.9561
8.41458 6.98809 4.14714
9.40071 14.7151 3.89878
7.52987 2.15771 10.2949
8.57035 15.0911 0.225157
5.99394 0.426867 2.60629
3.78018 7.34298 7.07114
8.66714 12.3719 14.5591
6.22297 10.2107 13.0378
2.5006 2.58469 16.285
13.882 3.38825 9.16156
1.46094 4.02837 9.46898
1.31973 11.7001 1.04229
1.20635 13.6397 4.53813
1.66912 15.3409 12.7386
15.2986 12.8386 12.7387
1.12176 6.87986 15.8142
12.4878 10.7159 8.18276
14.3803 0.27645 6.44942
4.26323 6.25337 10.3516
