New POSCAR file                         
   1.00000000000000     
    16.0260819999999988    0.0000000000000000    0.0000000000000000
     0.0000000000000000   16.1000000000000014    0.0000000000000000
     0.0000000000000000    0.0000000000000000   16.4253670000000014
   Li   P    S    Cl
    96    16    80    16
Direct
  0.7426830837381218  0.8233043478260882  0.1777835466324760
  0.5625267610636229  0.6781428571428592  0.0143893892903577
  0.6666070971058318  0.6343788819875797  0.1866430138212465
  0.8284183245786494  0.9257018633540355  0.9995514864294961
  0.5707028080849739  0.7824782608695671  0.2842341361383305
  0.9020919773154787  0.7660745341614899  0.9077970677915417
  0.2349913097911269  0.0416120496894408  0.0416975766812371
  0.2231443717809540  0.8585279503105596  0.2946570387133534
  0.0967784889656755  0.9845341614906857  0.3609812797485716
  0.2138507715110904  0.7335155279503098  0.0575516516617256
  0.1042619150457327  0.6944658385093163  0.8886255022490488
  0.3258556894941620  0.8500621118012432  0.4377363379460562
  0.3350014058333173  0.4929111801242243  0.5910705069786246
  0.5037045236633659  0.7991428571428543  0.5290871126349899
  0.7083640280887096  0.8560993788819857  0.7726889755340025
  0.3505579217677806  0.6360124223602455  0.4439310244940060
  0.7085449831094053  0.5241242236024846  0.7490852411395110
  0.1618474184769525  0.7229813664596278  0.6276998255198833
  0.9961386694514616  0.9066770186335376  0.8692652042417066
  0.9355748959726995  0.4674937888198727  0.9874299916708082
  0.1618829854982664  0.4803900621118018  0.6867730870183877
  0.5295505164643473  0.9052484472049684  0.8536430266672284
  0.0138907313715251  0.6033881987577630  0.7402696085877380
  0.8580075903767366  0.5983285714285742  0.8341183487711419
  0.3643086313922552  0.4827198757763966  0.8812466716877623
  0.0897118834160437  0.5165310559006215  0.8696000521632143
  0.2609184203600137  0.6108316770186306  0.8342888168039124
  0.4255494262415453  0.6944720496894377  0.9245699045872158
  0.0566954543225222  0.3103720496894411  0.6939753614028845
  0.5343108814743402  0.6439254658385067  0.7209762801646988
  0.2681173102695951  0.2564869565217407  0.0292326497179616
  0.3565830999741522  0.1673248447204969  0.1341309451411377
  0.4724810468335292  0.0699347826086978  0.0336542251993492
  0.4337504325760975  0.3272813664596299  0.0379598215370152
  0.6241076265552650  0.3922149068323009  0.1826406679375836
  0.0832586529882988  0.1588937888198743  0.1258358489037121
  0.7917094146903807  0.1088086956521721  0.4869090596271022
  0.8142351948529907  0.3086049689441026  0.6835828995480000
  0.6358385037590608  0.9933043478260899  0.9466637792628916
  0.5791390559464276  0.2978074534161479  0.6988884936330493
  0.8619636415188694  0.1786347826086967  0.8062285609813173
  0.7723721867890134  0.3102484472049696  0.8667264481822556
  0.4695745348114428  0.2185490683229787  0.3609910207790179
  0.2528540662652290  0.0115893167701842  0.7244343459722984
  0.3339849378032653  0.0880621118012428  0.3233912520797873
  0.9938424126371004  0.1394900621118040  0.6196939161237580
  0.4152861566538846  0.9731490683229822  0.4861839616734258
  0.9403171654806215  0.3011925465838488  0.4222633199002459
  0.3948987656496428  0.4207645962732940  0.4069644227736262
  0.0120663927714801  0.2210434782608672  0.2595211419020345
  0.1893538295885406  0.2779018633540389  0.3131169002190362
  0.9861424645150336  0.3880813664596303  0.1927822982585425
  0.1337781748527149  0.4598683229813645  0.3105422241098168
  0.2825831042172382  0.4979906832298155  0.1929186726847547
  0.7927639456730589  0.6051428571428588  0.3007007392894181
  0.0911277004572923  0.5371298136645990  0.0766406010897640
  0.8248678622760082  0.4985900621118020  0.1328104267015746
  0.1028323703822309  0.7122981366459626  0.2860867583658830
  0.9506004025188446  0.6679751552794997  0.0413361844517723
  0.1072894797368420  0.4093186335403729  0.4471315618092433
  0.4439537998120784  0.0159636024844687  0.7655780233099208
  0.3683901030832146  0.9336770186335386  0.9245699045872158
  0.3997015614920727  0.8608447204968925  0.6486186883982583
  0.0949832903637926  0.8551739130434797  0.7245926377170164
  0.2164552758434652  0.8410372670807433  0.8488333928855312
  0.3214541146114200  0.7458695652173901  0.7456149990438590
  0.0431293188191617  0.8195590062111791  0.4652675340526642
  0.8666559924003892  0.9193229813664630  0.5053963177809067
  0.8909414041435681  0.7805341614906851  0.2613378440798328
  0.8820746081294217  0.7411304347826118  0.5411105882748330
  0.7846584087115005  0.7719999999999985  0.4078965176242306
  0.7398439618616734  0.1170664596273312  0.6877471900627867
  0.9950279800140791  0.3253242236024860  0.8585865996175315
  0.3850448287984563  0.1680391304347850  0.8626108628196860
  0.1356969220549331  0.1663074534161524  0.8443342544492296
  0.2795892345989515  0.3354968944099355  0.7790632623307587
  0.1057707055286485  0.8577763975155293  0.0642171343873201
  0.2169725576095303  0.4527577639751570  0.9568979493730652
  0.5875746798250532  0.4249546583850901  0.3842459045207320
  0.4900586431543275  0.5596968944099387  0.1302369682211690
  0.7190653336230284  0.2230689440993814  0.3215690705723659
  0.5271606622254907  0.5862708074534169  0.2972548497698710
  0.4272996980796648  0.7155838509316794  0.2493320240576651
  0.7632433179862659  0.4056931677018625  0.3568370801090808
  0.8253358493984990  0.0433248447204946  0.2698947305104369
  0.5003574797633021  0.8875093167701849  0.1353808411099706
  0.6470701946988697  0.6713229813664583  0.4022911634181412
  0.6892077552080380  0.9457142857142884  0.3405232893730741
  0.4806458621639393  0.0277519875776377  0.2536217303394181
  0.5266695877382901  0.9409316770186322  0.3806435496996841
  0.3827329724133435  0.2363950310558991  0.7265956371020508
  0.8076958547947015  0.5584608695652165  0.5751652307068724
  0.5748029992608323  0.0858645962732894  0.7121484713248734
  0.2022035080065123  0.1853304347826068  0.6504086027423313
  0.5828180587120428  0.1037037267080763  0.4774444309219987
  0.6262666071470235  0.1888565217391331  0.8722849236793309
  0.6984988595465822  0.9209875776397496  0.5765989886253351
  0.6309527182002412  0.6935031055900609  0.6048577179432257
  0.3483533904294234  0.2963012422360265  0.2295826936469680
  0.2151087208963460  0.9563478260869545  0.5318060777576505
  0.9307015900704840  0.5587534161490666  0.3861447966429026
  0.8925013612185424  0.4390428571428586  0.7317705595253940
  0.5344157105897764  0.3277273291925482  0.5640391474966719
  0.0989742845444042  0.6039062111801243  0.5183001390471205
  0.6039972839275407  0.1057242236024862  0.2533648106614592
  0.7942864637782350  0.0075260248447222  0.8537952302679130
  0.9051557330107229  0.8360186335403696  0.1119213957289347
  0.3328536569324925  0.5351360248447179  0.0509097909349592
  0.8364989022270066  0.2639639751552778  0.1840750346704567
  0.6715677606042476  0.4752118012422386  0.9907723827418877
  0.2742017668448256  0.6627888198757788  0.2531011940250707
  0.5161935400055953  0.4113366459627343  0.8492291222473156
  0.6886024918629516  0.0438179503105616  0.5747140992344342
  0.6470701946988697  0.8841304347826053  0.4594929294426109
  0.6093604163512936  0.8640745341614888  0.6498728460679146
  0.7898936246551074  0.8695403726708051  0.6363328137508262
  0.6866307061201837  0.6782795031055926  0.7160327072143957
  0.7204131365358037  0.7377701863354034  0.2937925222614481
  0.5122168974300791  0.9612670807453441  0.6339767020121982
  0.5018812458341344  0.6972795031055909  0.4221080722275516
  0.4248206142961237  0.3963900621117986  0.1795862460790048
  0.3371753620129994  0.2835844720496894  0.3526417400597524
  0.1180407038975559  0.1435248447204955  0.2593287565507651
  0.2383208821719478  0.3448602484472048  0.1813889455255406
  0.2484431316400375  0.9745279503105593  0.4153581469442997
  0.2775188595690423  0.0478802484472070  0.5696518074755943
  0.2845954488439517  0.8436521739130427  0.5657882712757640
  0.0816119622999523  0.9484844720496923  0.5263602329250858
  0.9032650650358605  0.4436770186335437  0.4341784265764019
  0.6585202796291725  0.5295484472049665  0.3051834397368438
  0.0723589209140485  0.5874478260869580  0.3911054163964778
  0.6740512122675995  0.3111012422360275  0.4409825363415010
  0.8731641333171751  0.4038937888198788  0.8572472079314863
  0.0179896745817203  0.4357130434782590  0.7682202778178393
  0.8741874651583572  0.5597652173913019  0.6966906736391323
  0.6756922871104720  0.4935490683229844  0.5446508440268047
  0.5675816459693621  0.5797708074534142  0.5889469623418435
  0.4854623856286295  0.4350664596273290  0.5219609400508389
  0.4282618796035109  0.2374913043478273  0.5748742174223551
  0.5609811555937370  0.2674527950310548  0.4850978367789267
  0.0296837991968317  0.7056708074534157  0.5698862010206511
  0.3488787839722747  0.6484534161490672  0.5945687545368088
  0.0616141237764793  0.4905968944099399  0.5734575063071645
  0.1707978281903237  0.7165155279503068  0.7667408588191691
  0.4625366324719948  0.0734055900621087  0.3901471425265584
  0.6864435112711860  0.1033223602484483  0.1565018303700612
  0.6755737303727756  0.0855559006211166  0.3547780697989893
  0.5874573710530129  0.2380490683229795  0.2500163314463535
  0.7482739698948251  0.1007503105590075  0.9350110715943174
  0.6835482309400405  0.9999751552795004  0.7926641760881168
  0.7947357314158268  0.8870248447205000  0.8962478585714422
  0.8771576234291061  0.0357877639751578  0.7681654845215959
  0.8275509884449619  0.9462919254658360  0.1566844746908842
  0.9216039204092397  0.5739347826086956  0.2415422437745249
  0.9753600412128165  0.9002422360248445  0.0289641625663535
  0.8406234287332381  0.7754409937888198  0.0626670929179269
  0.3715861431384155  0.5822484472049680  0.2865342369519084
  0.4426028769851555  0.5707627329192562  0.9852139072448125
  0.2491713196026311  0.6064751552795045  0.9838927799908532
  0.3317180081819089  0.4126080745341625  0.0082045655357348
  0.8511500190751562  0.1958608695652160  0.2799279918677016
  0.7353138465159503  0.2229428571428542  0.1006455441756628
  0.9486847752307739  0.2625465838509342  0.1242407551685147
  0.8263467015830841  0.3621770186335382  0.2223244083374212
  0.6436070899924289  0.5040093167701869  0.0983923220710992
  0.6022426442096105  0.3778347826086943  0.9426577804928158
  0.7592123889045368  0.4198335403726716  0.9895182250722314
  0.7232460185839571  0.5583080745341604  0.9230174278602092
  0.1680828788970388  0.5920049689440958  0.2176608900123824
  0.2982800162884445  0.7633726708074562  0.1801268732686481
  0.4487185327018821  0.7845900621118034  0.3593259133875080
  0.2493067238767424  0.6997515527950284  0.3729152596712169
  0.5112278846445406  0.2868229813664627  0.8071539588734922
  0.7033971247619988  0.4240683229813698  0.6473036492883253
  0.5003119290167106  0.0943546583850932  0.8645164519002861
  0.5609118934996076  0.4760161490683217  0.7543758382993815
  0.5330423243809719  0.7010248447205001  0.1730713231552130
  0.2308717751475342  0.8942236024844732  0.9981146844390167
  0.4308832314722935  0.7280372670807438  0.6427618938438329
  0.9808323706318234  0.6067913043478228  0.9209961640430890
  0.2382803232880022  0.4705037267080741  0.8057780383232824
  0.3862472437118427  0.1805819875776393  0.9943278588539286
  0.7176301731140526  0.2440739130434793  0.7527076868358549
  0.2575214578335476  0.1658149068322956  0.7716661673373864
  0.0553463410458050  0.3434229813664587  0.3361154730971947
  0.9657819047724843  0.5110322981366480  0.1292032013652999
  0.3394254440979410  0.9140186335403726  0.7826857080271026
  0.9108090174504255  0.8224658385093164  0.4038369431867181
  0.0011887933682075  0.2196850931677048  0.7955073393489442
  0.5369671763816015  0.4397708074534137  0.2544606765864046
  0.5834850963573004  0.9168881987577606  0.2340020773965037
  0.4711644430622499  0.1408645962732891  0.6336479422347168
  0.5271369508779529  0.9386397515527918  0.0078576630890481
  0.3698633265448166  0.0210167701863355  0.1586278102644556
  0.2455684427422753  0.4502291925465869  0.4410586381418469
  0.5415278668859926  0.7753726708074566  0.8927532638996709
  0.3875632235002939  0.6380683229813684  0.7840129234250881
  0.1538853975662917  0.1610496894409934  0.9918195435146160
  0.8696199108428360  0.2135366459627335  0.5565848239494429
  0.0902896915166167  0.2436956521739120  0.5780668401503632
  0.0828574320286108  0.7314782608695651  0.0657830050311787
  0.0766076200034433  0.8568136645962738  0.2724608832180095
  0.1021809323077250  0.9379192546583823  0.7705703014124410
  0.9477675204706912  0.7944720496894391  0.7685794783154591
  0.0653216425574286  0.4305596273291954  0.9662310741671689
  0.7730273687605020  0.6680559006211197  0.5034992521019461
  0.9018548638400858  0.0137981987577618  0.3853697759082024
  0.2622163046463868  0.3823931677018635  0.6244670210412977
 
  0.00000000E+00  0.00000000E+00  0.00000000E+00
  0.00000000E+00  0.00000000E+00  0.00000000E+00
  0.00000000E+00  0.00000000E+00  0.00000000E+00
  0.00000000E+00  0.00000000E+00  0.00000000E+00
  0.00000000E+00  0.00000000E+00  0.00000000E+00
  0.00000000E+00  0.00000000E+00  0.00000000E+00
  0.00000000E+00  0.00000000E+00  0.00000000E+00
  0.00000000E+00  0.00000000E+00  0.00000000E+00
  0.00000000E+00  0.00000000E+00  0.00000000E+00
  0.00000000E+00  0.00000000E+00  0.00000000E+00
  0.00000000E+00  0.00000000E+00  0.00000000E+00
  0.00000000E+00  0.00000000E+00  0.00000000E+00
  0.00000000E+00  0.00000000E+00  0.00000000E+00
  0.00000000E+00  0.00000000E+00  0.00000000E+00
  0.00000000E+00  0.00000000E+00  0.00000000E+00
  0.00000000E+00  0.00000000E+00  0.00000000E+00
  0.00000000E+00  0.00000000E+00  0.00000000E+00
  0.00000000E+00  0.00000000E+00  0.00000000E+00
  0.00000000E+00  0.00000000E+00  0.00000000E+00
  0.00000000E+00  0.00000000E+00  0.00000000E+00
  0.00000000E+00  0.00000000E+00  0.00000000E+00
  0.00000000E+00  0.00000000E+00  0.00000000E+00
  0.00000000E+00  0.00000000E+00  0.00000000E+00
  0.00000000E+00  0.00000000E+00  0.00000000E+00
  0.00000000E+00  0.00000000E+00  0.00000000E+00
  0.00000000E+00  0.00000000E+00  0.00000000E+00
  0.00000000E+00  0.00000000E+00  0.00000000E+00
  0.00000000E+00  0.00000000E+00  0.00000000E+00
  0.00000000E+00  0.00000000E+00  0.00000000E+00
  0.00000000E+00  0.00000000E+00  0.00000000E+00
  0.00000000E+00  0.00000000E+00  0.00000000E+00
  0.00000000E+00  0.00000000E+00  0.00000000E+00
  0.00000000E+00  0.00000000E+00  0.00000000E+00
  0.00000000E+00  0.00000000E+00  0.00000000E+00
  0.00000000E+00  0.00000000E+00  0.00000000E+00
  0.00000000E+00  0.00000000E+00  0.00000000E+00
  0.00000000E+00  0.00000000E+00  0.00000000E+00
  0.00000000E+00  0.00000000E+00  0.00000000E+00
  0.00000000E+00  0.00000000E+00  0.00000000E+00
  0.00000000E+00  0.00000000E+00  0.00000000E+00
  0.00000000E+00  0.00000000E+00  0.00000000E+00
  0.00000000E+00  0.00000000E+00  0.00000000E+00
  0.00000000E+00  0.00000000E+00  0.00000000E+00
  0.00000000E+00  0.00000000E+00  0.00000000E+00
  0.00000000E+00  0.00000000E+00  0.00000000E+00
  0.00000000E+00  0.00000000E+00  0.00000000E+00
  0.00000000E+00  0.00000000E+00  0.00000000E+00
  0.00000000E+00  0.00000000E+00  0.00000000E+00
  0.00000000E+00  0.00000000E+00  0.00000000E+00
  0.00000000E+00  0.00000000E+00  0.00000000E+00
  0.00000000E+00  0.00000000E+00  0.00000000E+00
  0.00000000E+00  0.00000000E+00  0.00000000E+00
  0.00000000E+00  0.00000000E+00  0.00000000E+00
  0.00000000E+00  0.00000000E+00  0.00000000E+00
  0.00000000E+00  0.00000000E+00  0.00000000E+00
  0.00000000E+00  0.00000000E+00  0.00000000E+00
  0.00000000E+00  0.00000000E+00  0.00000000E+00
  0.00000000E+00  0.00000000E+00  0.00000000E+00
  0.00000000E+00  0.00000000E+00  0.00000000E+00
  0.00000000E+00  0.00000000E+00  0.00000000E+00
  0.00000000E+00  0.00000000E+00  0.00000000E+00
  0.00000000E+00  0.00000000E+00  0.00000000E+00
  0.00000000E+00  0.00000000E+00  0.00000000E+00
  0.00000000E+00  0.00000000E+00  0.00000000E+00
  0.00000000E+00  0.00000000E+00  0.00000000E+00
  0.00000000E+00  0.00000000E+00  0.00000000E+00
  0.00000000E+00  0.00000000E+00  0.00000000E+00
  0.00000000E+00  0.00000000E+00  0.00000000E+00
  0.00000000E+00  0.00000000E+00  0.00000000E+00
  0.00000000E+00  0.00000000E+00  0.00000000E+00
  0.00000000E+00  0.00000000E+00  0.00000000E+00
  0.00000000E+00  0.00000000E+00  0.00000000E+00
  0.00000000E+00  0.00000000E+00  0.00000000E+00
  0.00000000E+00  0.00000000E+00  0.00000000E+00
  0.00000000E+00  0.00000000E+00  0.00000000E+00
  0.00000000E+00  0.00000000E+00  0.00000000E+00
  0.00000000E+00  0.00000000E+00  0.00000000E+00
  0.00000000E+00  0.00000000E+00  0.00000000E+00
  0.00000000E+00  0.00000000E+00  0.00000000E+00
  0.00000000E+00  0.00000000E+00  0.00000000E+00
  0.00000000E+00  0.00000000E+00  0.00000000E+00
  0.00000000E+00  0.00000000E+00  0.00000000E+00
  0.00000000E+00  0.00000000E+00  0.00000000E+00
  0.00000000E+00  0.00000000E+00  0.00000000E+00
  0.00000000E+00  0.00000000E+00  0.00000000E+00
  0.00000000E+00  0.00000000E+00  0.00000000E+00
  0.00000000E+00  0.00000000E+00  0.00000000E+00
  0.00000000E+00  0.00000000E+00  0.00000000E+00
  0.00000000E+00  0.00000000E+00  0.00000000E+00
  0.00000000E+00  0.00000000E+00  0.00000000E+00
  0.00000000E+00  0.00000000E+00  0.00000000E+00
  0.00000000E+00  0.00000000E+00  0.00000000E+00
  0.00000000E+00  0.00000000E+00  0.00000000E+00
  0.00000000E+00  0.00000000E+00  0.00000000E+00
  0.00000000E+00  0.00000000E+00  0.00000000E+00
  0.00000000E+00  0.00000000E+00  0.00000000E+00
  0.00000000E+00  0.00000000E+00  0.00000000E+00
  0.00000000E+00  0.00000000E+00  0.00000000E+00
  0.00000000E+00  0.00000000E+00  0.00000000E+00
  0.00000000E+00  0.00000000E+00  0.00000000E+00
  0.00000000E+00  0.00000000E+00  0.00000000E+00
  0.00000000E+00  0.00000000E+00  0.00000000E+00
  0.00000000E+00  0.00000000E+00  0.00000000E+00
  0.00000000E+00  0.00000000E+00  0.00000000E+00
  0.00000000E+00  0.00000000E+00  0.00000000E+00
  0.00000000E+00  0.00000000E+00  0.00000000E+00
  0.00000000E+00  0.00000000E+00  0.00000000E+00
  0.00000000E+00  0.00000000E+00  0.00000000E+00
  0.00000000E+00  0.00000000E+00  0.00000000E+00
  0.00000000E+00  0.00000000E+00  0.00000000E+00
  0.00000000E+00  0.00000000E+00  0.00000000E+00
  0.00000000E+00  0.00000000E+00  0.00000000E+00
  0.00000000E+00  0.00000000E+00  0.00000000E+00
  0.00000000E+00  0.00000000E+00  0.00000000E+00
  0.00000000E+00  0.00000000E+00  0.00000000E+00
  0.00000000E+00  0.00000000E+00  0.00000000E+00
  0.00000000E+00  0.00000000E+00  0.00000000E+00
  0.00000000E+00  0.00000000E+00  0.00000000E+00
  0.00000000E+00  0.00000000E+00  0.00000000E+00
  0.00000000E+00  0.00000000E+00  0.00000000E+00
  0.00000000E+00  0.00000000E+00  0.00000000E+00
  0.00000000E+00  0.00000000E+00  0.00000000E+00
  0.00000000E+00  0.00000000E+00  0.00000000E+00
  0.00000000E+00  0.00000000E+00  0.00000000E+00
  0.00000000E+00  0.00000000E+00  0.00000000E+00
  0.00000000E+00  0.00000000E+00  0.00000000E+00
  0.00000000E+00  0.00000000E+00  0.00000000E+00
  0.00000000E+00  0.00000000E+00  0.00000000E+00
  0.00000000E+00  0.00000000E+00  0.00000000E+00
  0.00000000E+00  0.00000000E+00  0.00000000E+00
  0.00000000E+00  0.00000000E+00  0.00000000E+00
  0.00000000E+00  0.00000000E+00  0.00000000E+00
  0.00000000E+00  0.00000000E+00  0.00000000E+00
  0.00000000E+00  0.00000000E+00  0.00000000E+00
  0.00000000E+00  0.00000000E+00  0.00000000E+00
  0.00000000E+00  0.00000000E+00  0.00000000E+00
  0.00000000E+00  0.00000000E+00  0.00000000E+00
  0.00000000E+00  0.00000000E+00  0.00000000E+00
  0.00000000E+00  0.00000000E+00  0.00000000E+00
  0.00000000E+00  0.00000000E+00  0.00000000E+00
  0.00000000E+00  0.00000000E+00  0.00000000E+00
  0.00000000E+00  0.00000000E+00  0.00000000E+00
  0.00000000E+00  0.00000000E+00  0.00000000E+00
  0.00000000E+00  0.00000000E+00  0.00000000E+00
  0.00000000E+00  0.00000000E+00  0.00000000E+00
  0.00000000E+00  0.00000000E+00  0.00000000E+00
  0.00000000E+00  0.00000000E+00  0.00000000E+00
  0.00000000E+00  0.00000000E+00  0.00000000E+00
  0.00000000E+00  0.00000000E+00  0.00000000E+00
  0.00000000E+00  0.00000000E+00  0.00000000E+00
  0.00000000E+00  0.00000000E+00  0.00000000E+00
  0.00000000E+00  0.00000000E+00  0.00000000E+00
  0.00000000E+00  0.00000000E+00  0.00000000E+00
  0.00000000E+00  0.00000000E+00  0.00000000E+00
  0.00000000E+00  0.00000000E+00  0.00000000E+00
  0.00000000E+00  0.00000000E+00  0.00000000E+00
  0.00000000E+00  0.00000000E+00  0.00000000E+00
  0.00000000E+00  0.00000000E+00  0.00000000E+00
  0.00000000E+00  0.00000000E+00  0.00000000E+00
  0.00000000E+00  0.00000000E+00  0.00000000E+00
  0.00000000E+00  0.00000000E+00  0.00000000E+00
  0.00000000E+00  0.00000000E+00  0.00000000E+00
  0.00000000E+00  0.00000000E+00  0.00000000E+00
  0.00000000E+00  0.00000000E+00  0.00000000E+00
  0.00000000E+00  0.00000000E+00  0.00000000E+00
  0.00000000E+00  0.00000000E+00  0.00000000E+00
  0.00000000E+00  0.00000000E+00  0.00000000E+00
  0.00000000E+00  0.00000000E+00  0.00000000E+00
  0.00000000E+00  0.00000000E+00  0.00000000E+00
  0.00000000E+00  0.00000000E+00  0.00000000E+00
  0.00000000E+00  0.00000000E+00  0.00000000E+00
  0.00000000E+00  0.00000000E+00  0.00000000E+00
  0.00000000E+00  0.00000000E+00  0.00000000E+00
  0.00000000E+00  0.00000000E+00  0.00000000E+00
  0.00000000E+00  0.00000000E+00  0.00000000E+00
  0.00000000E+00  0.00000000E+00  0.00000000E+00
  0.00000000E+00  0.00000000E+00  0.00000000E+00
  0.00000000E+00  0.00000000E+00  0.00000000E+00
  0.00000000E+00  0.00000000E+00  0.00000000E+00
  0.00000000E+00  0.00000000E+00  0.00000000E+00
  0.00000000E+00  0.00000000E+00  0.00000000E+00
  0.00000000E+00  0.00000000E+00  0.00000000E+00
  0.00000000E+00  0.00000000E+00  0.00000000E+00
  0.00000000E+00  0.00000000E+00  0.00000000E+00
  0.00000000E+00  0.00000000E+00  0.00000000E+00
  0.00000000E+00  0.00000000E+00  0.00000000E+00
  0.00000000E+00  0.00000000E+00  0.00000000E+00
  0.00000000E+00  0.00000000E+00  0.00000000E+00
  0.00000000E+00  0.00000000E+00  0.00000000E+00
  0.00000000E+00  0.00000000E+00  0.00000000E+00
  0.00000000E+00  0.00000000E+00  0.00000000E+00
  0.00000000E+00  0.00000000E+00  0.00000000E+00
  0.00000000E+00  0.00000000E+00  0.00000000E+00
  0.00000000E+00  0.00000000E+00  0.00000000E+00
  0.00000000E+00  0.00000000E+00  0.00000000E+00
  0.00000000E+00  0.00000000E+00  0.00000000E+00
  0.00000000E+00  0.00000000E+00  0.00000000E+00
  0.00000000E+00  0.00000000E+00  0.00000000E+00
  0.00000000E+00  0.00000000E+00  0.00000000E+00
  0.00000000E+00  0.00000000E+00  0.00000000E+00
  0.00000000E+00  0.00000000E+00  0.00000000E+00
  0.00000000E+00  0.00000000E+00  0.00000000E+00
  0.00000000E+00  0.00000000E+00  0.00000000E+00
  0.00000000E+00  0.00000000E+00  0.00000000E+00
  0.00000000E+00  0.00000000E+00  0.00000000E+00
  0.00000000E+00  0.00000000E+00  0.00000000E+00
  0.00000000E+00  0.00000000E+00  0.00000000E+00
  0.00000000E+00  0.00000000E+00  0.00000000E+00
