System = LPSC

ISIF = 2
ISYM = 0
NSW = 1
NELM = 100
ENCUT = 500
EDIFF = 1E-6
EDIFFG = -1E-2
IBRION = 2
ISMEAR = 0
SIGMA = 0.05
ISPIN = 1
LORBIT = 11
NPAR = 8
LWAVE = .FALSE.
LCHARG = .FALSE.
IALGO = 48
