New POSCAR file                         
   1.00000000000000     
    16.0260819999999988    0.0000000000000000    0.0000000000000000
     0.0000000000000000   16.1000000000000014    0.0000000000000000
     0.0000000000000000    0.0000000000000000   16.4253670000000014
   Li   P    S    Cl
    96    16    80    16
Direct
  0.7259478642378099  0.8126211180124230  0.1893096209052771
  0.5736037042615934  0.6736273291925485  0.0021494253370378
  0.6614030803037210  0.6306397515527919  0.1909138468565104
  0.8322121401849785  0.9365900621118044  0.0216475528370239
  0.5803633102588677  0.7742484472049682  0.2957626456687379
  0.9079761354022793  0.7521242236024861  0.9063298250809240
  0.2376794278227194  0.0465496894409938  0.0503031682640653
  0.2104993597312159  0.8532360248447191  0.2818573247100034
  0.1090385036093053  0.0057421552795063  0.3615353008550741
  0.2264820559385612  0.7412049689440963  0.0562490323656064
  0.1040584966431624  0.6898944099378852  0.8984882955735500
  0.3291659184072557  0.8464037267080755  0.4306113829907119
  0.3592462586925507  0.4889403726708039  0.6118584747604103
  0.5279793276984321  0.8088447204968929  0.5346687230793705
  0.7196581173115177  0.8559378881987598  0.7691274112779354
  0.3436186087154667  0.6379006211180140  0.4385308407416417
  0.7025797072547135  0.5343322981366470  0.7623878358395260
  0.1597202610095252  0.7174347826086986  0.6285947826919198
  0.9744989449074311  0.9087701863354027  0.8754264059975014
  0.9170363660937184  0.4772552795031046  0.9692568817488194
  0.1631902295270891  0.4668552795031076  0.6830958480258005
  0.5085260389906878  0.8848322981366437  0.8714082309393731
  0.0104683103456011  0.6254844720496919  0.7450548897933302
  0.8399807264183465  0.5743788819875775  0.8497831433538110
  0.3660177203635939  0.4865720496894426  0.8762239528651037
  0.0790367851605893  0.5118770186335411  0.8728754736499980
  0.2375315438920111  0.6082956521739149  0.8159513269931793
  0.4274394702335869  0.7050621118012401  0.9139460932592840
  0.0621417636575146  0.3152782608695617  0.6842404191029630
  0.5289577327758579  0.6376086956521760  0.7373351231665026
  0.2722443327071460  0.2638894409937862  0.0443387962046771
  0.3545482919655569  0.1726770186335429  0.1469099594547885
  0.4709229617070463  0.0752248447204948  0.0118220189539784
  0.4325654891819468  0.3208366459627356  0.0534044079502181
  0.6321258059206230  0.3852962732919281  0.1909668137095508
  0.0796420485056828  0.1675546583850931  0.1301127700830094
  0.8048754524031523  0.1096385093167669  0.4805487755616085
  0.8169682396483466  0.3100223602484462  0.6697932533257855
  0.6234493246696218  0.0044930434782628  0.9388831311957873
  0.5723295313227510  0.3109683229813669  0.6831871701862156
  0.8612710205775826  0.1768422360248465  0.8107276994176118
  0.7641543329180536  0.3188167701863378  0.8656305822573103
  0.4726832172704505  0.2159633540372639  0.3587037050678958
  0.2541163835302953  0.0046772484472015  0.7300110859014595
  0.3271616855573285  0.0900944099378904  0.3388624436823875
  0.9851316123304485  0.1685881987577673  0.6212463928507646
  0.4125992865879482  0.0124140372670780  0.5045074487528964
  0.9392439150130372  0.3266024844720476  0.4158884242890863
  0.3809727168499464  0.4185242236024820  0.3931918233546909
  0.9986657999129136  0.2137111801242213  0.2634546917581844
  0.1827046685521765  0.2697111801242258  0.3055870836858645
  0.9658443030554835  0.3880043478260902  0.2101627318281558
  0.1370771720748749  0.4782229813664571  0.3147107763254269
  0.2907766227578250  0.4845795031055928  0.2034913436028560
  0.7897688280891089  0.6053018633540361  0.3026580775942449
  0.1107694319796906  0.5797037267080754  0.0842416489080549
  0.8042265102599657  0.4760559006211196  0.1217257428707654
  0.0846201835233344  0.7070993788819848  0.2927983283417674
  0.9582254727013151  0.6595031055900620  0.0404597352375760
  0.1082990839557638  0.4085832298136651  0.4602435976011989
  0.4362700752435913  0.0148580745341604  0.7525615713791964
  0.3317554471517141  0.9403726708074558  0.9128197866142074
  0.3881397836352036  0.8806956521739124  0.6392977398922071
  0.0867704283554787  0.8393788819875780  0.7472648860752997
  0.2106566034043738  0.8479440993788785  0.8589214475390392
  0.3102735902636695  0.7552981366459619  0.7474840592602874
  0.0411865482779916  0.8291863354037261  0.4645363479549616
  0.8784243085739831  0.9095341614906829  0.4891641081748759
  0.8754104715051412  0.7979440993788813  0.2571394599584877
  0.8963700547644748  0.7374472049689444  0.5294950182848268
  0.7813450598842593  0.7721987577639737  0.4151986375707750
  0.7471819999423417  0.1065180124223630  0.7035154830939234
  0.9916335134189396  0.3325254658385077  0.8604008665377165
  0.3720616180548717  0.1825161490683200  0.8627082731241273
  0.1377061467674991  0.1574869565217369  0.8319814102175016
  0.2928351421139581  0.3366745341614887  0.7792276422195030
  0.0908924589303837  0.8681739130434778  0.0533210003770392
  0.2091715242690029  0.4612397515527960  0.9497626445728713
  0.5877194438416069  0.4211925465838533  0.4042509369805884
  0.5142336099366034  0.5725335403726675  0.1262656718720478
  0.7108038009539683  0.2343677018633556  0.3051663929335646
  0.5259070807200388  0.5992677018633543  0.2991659181800941
  0.4322123149001698  0.7109937888198772  0.2386174993837287
  0.7742753344204800  0.4256055900621121  0.3498679816408341
  0.8301904358158154  0.0484249068322953  0.2753807570935862
  0.5009614951427324  0.8662236024844745  0.1269067534381421
  0.6453667215729979  0.6794782608695655  0.4060037136460934
  0.6956534978418318  0.9315031055900604  0.3297819768654193
  0.4651417607871977  0.0228843478260856  0.2489222919646181
  0.5368873065793593  0.9376832298136648  0.3836504840348454
  0.3914949393120537  0.2267403726708039  0.7013237512440327
  0.8322433393264816  0.5497559006211148  0.5664263087698416
  0.5801474121996861  0.1028198757763974  0.7239412063060726
  0.2041091515692983  0.1958931677018612  0.6472853848562394
  0.5863560413580799  0.1053770186335399  0.4790212602251174
  0.6264600418243234  0.1889354037267097  0.8553720595710246
  0.6956722173267309  0.9233229813664607  0.5750020684469348
  0.6268843501487140  0.6876708074534150  0.6123637907146886
  0.3482061304815502  0.2960347826086931  0.2283601943262497
  0.2092719855046283  0.9597950310558971  0.5294073490108318
  0.9360865618932905  0.5553987577639745  0.3892814084458536
  0.9001513907142140  0.4376062111801247  0.7306259884482316
  0.5258908571664591  0.3222409937888173  0.5691635383245952
  0.0991502477024611  0.6032776397515534  0.5165144864038638
  0.6066392272297136  0.1082857142857137  0.2567839123472879
  0.7892883613100210  0.0046523291925453  0.8498196722179756
  0.9074083110269839  0.8468944099378888  0.1183675226252205
  0.3389636968037451  0.5262173913043497  0.0501247856440585
  0.8426888119005014  0.2610571428571404  0.1868402696877354
  0.6677240263715092  0.4703496894409938  0.9837710171102998
  0.2705708107571141  0.6614285714285728  0.2482434639055526
  0.5082982852577445  0.4170472049689451  0.8483706939394438
  0.6965208339755122  0.0488652795031044  0.5642558854240534
  0.6570539199786936  0.8796521739130441  0.4594150011990621
  0.6060888743736612  0.8788571428571430  0.6445700726199917
  0.7998648702783342  0.8727950310559009  0.6268840142202023
  0.6850520295603104  0.6760000000000019  0.7262364366044309
  0.7149283274601999  0.7398819875776397  0.2946418183532842
  0.5045874593677979  0.9590745341614877  0.6298124114974115
  0.5059770691301821  0.6915465838509292  0.4269085737932059
  0.4210417742777040  0.3979440993788828  0.1870314374101980
  0.3406565622215112  0.2871857142857124  0.3540213134963750
  0.1242405972963354  0.1355714285714313  0.2643886130519917
  0.2369549837571014  0.3418440993788820  0.1837456660785719
  0.2447429134581967  0.9668012422360235  0.4036232493313534
  0.2799380410009107  0.0439908695652207  0.5765929004813088
  0.2774221422303995  0.8375652173913011  0.5623496875290499
  0.0838726520930066  0.9541118012422345  0.5265520094619518
  0.8928944704014370  0.4530944099378900  0.4337394713920233
  0.6638054141991816  0.5224540372670816  0.3060321270142694
  0.0695834452862556  0.5889552795031037  0.3890853702081642
  0.6773770407514448  0.3142850931677046  0.4319026783389361
  0.8702501335011235  0.4113683229813674  0.8520661973641168
  0.0276770080173065  0.4396267080745346  0.7577364938025397
  0.8647341252840235  0.5633521739130458  0.6947789964145059
  0.6747126340673901  0.4845465838509284  0.5509532907240384
  0.5758038677201327  0.5753832298136672  0.5817008533203563
  0.4773412490963196  0.4289714285714297  0.5164590842932171
  0.4237667072962665  0.2349931677018660  0.5773027780749160
  0.5606548125736524  0.2636322981366490  0.4707559958934269
  0.0317303380826317  0.7082608695652155  0.5678710253475643
  0.3490528751818474  0.6453850931677039  0.5820131751089619
  0.0547555541023712  0.4958155279503131  0.5706344339216258
  0.1680585435666657  0.7196832298136613  0.7712643498315757
  0.4694728256101541  0.0712913043478238  0.3887821806356015
  0.6961152451360206  0.1026534161490673  0.1448655606903628
  0.6799977686373992  0.0865801242236017  0.3549631493774257
  0.5863086186630042  0.2404813664596261  0.2416834887159567
  0.7476811862063357  0.0982037267080713  0.9362591411199546
  0.6833235971212446  0.9960434782608729  0.7902654473412980
  0.7934815259275467  0.8869440993788800  0.9001990640452675
  0.8800279444470576  0.0352624844720495  0.7776325484843056
  0.8264465388358815  0.9407018633540360  0.1592987237362777
  0.9173421176804197  0.5795192546583863  0.2350181886346903
  0.9724522812250669  0.9109751552795018  0.0272586907799379
  0.8391882682242624  0.7689875776397486  0.0586595112304025
  0.3664663640183576  0.5827552795031039  0.2829130088843641
  0.4469670128980994  0.5635453416149048  0.9890920549903086
  0.2416161354971251  0.6109229813664570  0.9816158141245808
  0.3320212638372837  0.4148291925465841  0.0047472607461359
  0.8594115517442162  0.1935881987577659  0.2823620318498854
  0.7410482487235512  0.2152155279503134  0.1141131275788254
  0.9507064795999440  0.2614447204968968  0.1257926230811179
  0.8173114302048390  0.3641888198757783  0.2291979229444294
  0.6476879377005531  0.5038583850931673  0.1019916328201376
  0.5943411496334505  0.3743496894409901  0.9441859046437102
  0.7706375145216384  0.4064049689441021  0.9939016887720058
  0.7146787343282028  0.5636503105590052  0.9196202434928864
  0.1690500522835237  0.5890416149068329  0.2201953843710172
  0.3029286883718711  0.7593913043478295  0.1879233505102178
  0.4567835107794878  0.7926770186335403  0.3639888228981434
  0.2439635589035447  0.7094409937888173  0.3780390416847297
  0.5044551750078412  0.2810509316770151  0.7959822145830913
  0.7084701051698090  0.4165795031055879  0.6509930645689650
  0.5056101672261519  0.0879670807453437  0.8617950515200050
  0.5567967267358327  0.4775155279503096  0.7569815639431354
  0.5421125387976957  0.7049751552795058  0.1709282964575465
  0.2277599727743791  0.8960496894409928  0.0022190371758484
  0.4308626400389031  0.7255962732919272  0.6303238155957160
  0.9727393133268620  0.6117006211180112  0.9178242410047801
  0.2319431536666272  0.4700204968944064  0.8145023487146403
  0.3794583105215636  0.1817440993788821  0.0005037184252856
  0.7254486779738158  0.2341062111801264  0.7575173206175521
  0.2580200201147136  0.1749360248447189  0.7729081487189902
  0.0586047793840052  0.3513211180124216  0.3398462877572257
  0.9653451167914895  0.5169217391304315  0.1267478528790278
  0.3363829038189152  0.9138322981366471  0.7864420928920524
  0.9227707683013193  0.8179813664596267  0.4032865749666357
  0.0019748245391469  0.2161838509316780  0.7878545423064196
  0.5291187203459984  0.4347440993788823  0.2540777323270760
  0.5833996107095913  0.9208074534161454  0.2358193883887054
  0.4738737765100680  0.1334807453416147  0.6233102736760756
  0.5316739300347990  0.9371801242236018  0.0056824909909139
  0.3713078467962418  0.0127596894409905  0.1621010964321243
  0.2461949215035872  0.4534677018633531  0.4333382627006159
  0.5323341038689335  0.7649689440993797  0.8929419963645273
  0.3817826465632734  0.6369378881987586  0.7902897999174101
  0.1483444300359906  0.1645913043478231  0.9967631164649191
  0.8780000002495925  0.2138055900621083  0.5511383703024748
  0.1018165263350070  0.2514968944099394  0.5794086670940146
  0.0876995387893302  0.7338633540372683  0.0658755448204005
  0.0794417500172528  0.8538447204968946  0.2753838011656029
  0.1053364134789803  0.9464223602484481  0.7747285037832015
  0.9482043084516860  0.7977142857142852  0.7703085112192625
  0.0647700417357129  0.4234180124223599  0.9737742846171997
  0.7787617709681030  0.6641118012422353  0.5077859143116896
  0.8945792240424097  0.0214179503105569  0.3928387110010974
  0.2745742845943226  0.3786981366459656  0.6356935586279420
 
  0.00000000E+00  0.00000000E+00  0.00000000E+00
  0.00000000E+00  0.00000000E+00  0.00000000E+00
  0.00000000E+00  0.00000000E+00  0.00000000E+00
  0.00000000E+00  0.00000000E+00  0.00000000E+00
  0.00000000E+00  0.00000000E+00  0.00000000E+00
  0.00000000E+00  0.00000000E+00  0.00000000E+00
  0.00000000E+00  0.00000000E+00  0.00000000E+00
  0.00000000E+00  0.00000000E+00  0.00000000E+00
  0.00000000E+00  0.00000000E+00  0.00000000E+00
  0.00000000E+00  0.00000000E+00  0.00000000E+00
  0.00000000E+00  0.00000000E+00  0.00000000E+00
  0.00000000E+00  0.00000000E+00  0.00000000E+00
  0.00000000E+00  0.00000000E+00  0.00000000E+00
  0.00000000E+00  0.00000000E+00  0.00000000E+00
  0.00000000E+00  0.00000000E+00  0.00000000E+00
  0.00000000E+00  0.00000000E+00  0.00000000E+00
  0.00000000E+00  0.00000000E+00  0.00000000E+00
  0.00000000E+00  0.00000000E+00  0.00000000E+00
  0.00000000E+00  0.00000000E+00  0.00000000E+00
  0.00000000E+00  0.00000000E+00  0.00000000E+00
  0.00000000E+00  0.00000000E+00  0.00000000E+00
  0.00000000E+00  0.00000000E+00  0.00000000E+00
  0.00000000E+00  0.00000000E+00  0.00000000E+00
  0.00000000E+00  0.00000000E+00  0.00000000E+00
  0.00000000E+00  0.00000000E+00  0.00000000E+00
  0.00000000E+00  0.00000000E+00  0.00000000E+00
  0.00000000E+00  0.00000000E+00  0.00000000E+00
  0.00000000E+00  0.00000000E+00  0.00000000E+00
  0.00000000E+00  0.00000000E+00  0.00000000E+00
  0.00000000E+00  0.00000000E+00  0.00000000E+00
  0.00000000E+00  0.00000000E+00  0.00000000E+00
  0.00000000E+00  0.00000000E+00  0.00000000E+00
  0.00000000E+00  0.00000000E+00  0.00000000E+00
  0.00000000E+00  0.00000000E+00  0.00000000E+00
  0.00000000E+00  0.00000000E+00  0.00000000E+00
  0.00000000E+00  0.00000000E+00  0.00000000E+00
  0.00000000E+00  0.00000000E+00  0.00000000E+00
  0.00000000E+00  0.00000000E+00  0.00000000E+00
  0.00000000E+00  0.00000000E+00  0.00000000E+00
  0.00000000E+00  0.00000000E+00  0.00000000E+00
  0.00000000E+00  0.00000000E+00  0.00000000E+00
  0.00000000E+00  0.00000000E+00  0.00000000E+00
  0.00000000E+00  0.00000000E+00  0.00000000E+00
  0.00000000E+00  0.00000000E+00  0.00000000E+00
  0.00000000E+00  0.00000000E+00  0.00000000E+00
  0.00000000E+00  0.00000000E+00  0.00000000E+00
  0.00000000E+00  0.00000000E+00  0.00000000E+00
  0.00000000E+00  0.00000000E+00  0.00000000E+00
  0.00000000E+00  0.00000000E+00  0.00000000E+00
  0.00000000E+00  0.00000000E+00  0.00000000E+00
  0.00000000E+00  0.00000000E+00  0.00000000E+00
  0.00000000E+00  0.00000000E+00  0.00000000E+00
  0.00000000E+00  0.00000000E+00  0.00000000E+00
  0.00000000E+00  0.00000000E+00  0.00000000E+00
  0.00000000E+00  0.00000000E+00  0.00000000E+00
  0.00000000E+00  0.00000000E+00  0.00000000E+00
  0.00000000E+00  0.00000000E+00  0.00000000E+00
  0.00000000E+00  0.00000000E+00  0.00000000E+00
  0.00000000E+00  0.00000000E+00  0.00000000E+00
  0.00000000E+00  0.00000000E+00  0.00000000E+00
  0.00000000E+00  0.00000000E+00  0.00000000E+00
  0.00000000E+00  0.00000000E+00  0.00000000E+00
  0.00000000E+00  0.00000000E+00  0.00000000E+00
  0.00000000E+00  0.00000000E+00  0.00000000E+00
  0.00000000E+00  0.00000000E+00  0.00000000E+00
  0.00000000E+00  0.00000000E+00  0.00000000E+00
  0.00000000E+00  0.00000000E+00  0.00000000E+00
  0.00000000E+00  0.00000000E+00  0.00000000E+00
  0.00000000E+00  0.00000000E+00  0.00000000E+00
  0.00000000E+00  0.00000000E+00  0.00000000E+00
  0.00000000E+00  0.00000000E+00  0.00000000E+00
  0.00000000E+00  0.00000000E+00  0.00000000E+00
  0.00000000E+00  0.00000000E+00  0.00000000E+00
  0.00000000E+00  0.00000000E+00  0.00000000E+00
  0.00000000E+00  0.00000000E+00  0.00000000E+00
  0.00000000E+00  0.00000000E+00  0.00000000E+00
  0.00000000E+00  0.00000000E+00  0.00000000E+00
  0.00000000E+00  0.00000000E+00  0.00000000E+00
  0.00000000E+00  0.00000000E+00  0.00000000E+00
  0.00000000E+00  0.00000000E+00  0.00000000E+00
  0.00000000E+00  0.00000000E+00  0.00000000E+00
  0.00000000E+00  0.00000000E+00  0.00000000E+00
  0.00000000E+00  0.00000000E+00  0.00000000E+00
  0.00000000E+00  0.00000000E+00  0.00000000E+00
  0.00000000E+00  0.00000000E+00  0.00000000E+00
  0.00000000E+00  0.00000000E+00  0.00000000E+00
  0.00000000E+00  0.00000000E+00  0.00000000E+00
  0.00000000E+00  0.00000000E+00  0.00000000E+00
  0.00000000E+00  0.00000000E+00  0.00000000E+00
  0.00000000E+00  0.00000000E+00  0.00000000E+00
  0.00000000E+00  0.00000000E+00  0.00000000E+00
  0.00000000E+00  0.00000000E+00  0.00000000E+00
  0.00000000E+00  0.00000000E+00  0.00000000E+00
  0.00000000E+00  0.00000000E+00  0.00000000E+00
  0.00000000E+00  0.00000000E+00  0.00000000E+00
  0.00000000E+00  0.00000000E+00  0.00000000E+00
  0.00000000E+00  0.00000000E+00  0.00000000E+00
  0.00000000E+00  0.00000000E+00  0.00000000E+00
  0.00000000E+00  0.00000000E+00  0.00000000E+00
  0.00000000E+00  0.00000000E+00  0.00000000E+00
  0.00000000E+00  0.00000000E+00  0.00000000E+00
  0.00000000E+00  0.00000000E+00  0.00000000E+00
  0.00000000E+00  0.00000000E+00  0.00000000E+00
  0.00000000E+00  0.00000000E+00  0.00000000E+00
  0.00000000E+00  0.00000000E+00  0.00000000E+00
  0.00000000E+00  0.00000000E+00  0.00000000E+00
  0.00000000E+00  0.00000000E+00  0.00000000E+00
  0.00000000E+00  0.00000000E+00  0.00000000E+00
  0.00000000E+00  0.00000000E+00  0.00000000E+00
  0.00000000E+00  0.00000000E+00  0.00000000E+00
  0.00000000E+00  0.00000000E+00  0.00000000E+00
  0.00000000E+00  0.00000000E+00  0.00000000E+00
  0.00000000E+00  0.00000000E+00  0.00000000E+00
  0.00000000E+00  0.00000000E+00  0.00000000E+00
  0.00000000E+00  0.00000000E+00  0.00000000E+00
  0.00000000E+00  0.00000000E+00  0.00000000E+00
  0.00000000E+00  0.00000000E+00  0.00000000E+00
  0.00000000E+00  0.00000000E+00  0.00000000E+00
  0.00000000E+00  0.00000000E+00  0.00000000E+00
  0.00000000E+00  0.00000000E+00  0.00000000E+00
  0.00000000E+00  0.00000000E+00  0.00000000E+00
  0.00000000E+00  0.00000000E+00  0.00000000E+00
  0.00000000E+00  0.00000000E+00  0.00000000E+00
  0.00000000E+00  0.00000000E+00  0.00000000E+00
  0.00000000E+00  0.00000000E+00  0.00000000E+00
  0.00000000E+00  0.00000000E+00  0.00000000E+00
  0.00000000E+00  0.00000000E+00  0.00000000E+00
  0.00000000E+00  0.00000000E+00  0.00000000E+00
  0.00000000E+00  0.00000000E+00  0.00000000E+00
  0.00000000E+00  0.00000000E+00  0.00000000E+00
  0.00000000E+00  0.00000000E+00  0.00000000E+00
  0.00000000E+00  0.00000000E+00  0.00000000E+00
  0.00000000E+00  0.00000000E+00  0.00000000E+00
  0.00000000E+00  0.00000000E+00  0.00000000E+00
  0.00000000E+00  0.00000000E+00  0.00000000E+00
  0.00000000E+00  0.00000000E+00  0.00000000E+00
  0.00000000E+00  0.00000000E+00  0.00000000E+00
  0.00000000E+00  0.00000000E+00  0.00000000E+00
  0.00000000E+00  0.00000000E+00  0.00000000E+00
  0.00000000E+00  0.00000000E+00  0.00000000E+00
  0.00000000E+00  0.00000000E+00  0.00000000E+00
  0.00000000E+00  0.00000000E+00  0.00000000E+00
  0.00000000E+00  0.00000000E+00  0.00000000E+00
  0.00000000E+00  0.00000000E+00  0.00000000E+00
  0.00000000E+00  0.00000000E+00  0.00000000E+00
  0.00000000E+00  0.00000000E+00  0.00000000E+00
  0.00000000E+00  0.00000000E+00  0.00000000E+00
  0.00000000E+00  0.00000000E+00  0.00000000E+00
  0.00000000E+00  0.00000000E+00  0.00000000E+00
  0.00000000E+00  0.00000000E+00  0.00000000E+00
  0.00000000E+00  0.00000000E+00  0.00000000E+00
  0.00000000E+00  0.00000000E+00  0.00000000E+00
  0.00000000E+00  0.00000000E+00  0.00000000E+00
  0.00000000E+00  0.00000000E+00  0.00000000E+00
  0.00000000E+00  0.00000000E+00  0.00000000E+00
  0.00000000E+00  0.00000000E+00  0.00000000E+00
  0.00000000E+00  0.00000000E+00  0.00000000E+00
  0.00000000E+00  0.00000000E+00  0.00000000E+00
  0.00000000E+00  0.00000000E+00  0.00000000E+00
  0.00000000E+00  0.00000000E+00  0.00000000E+00
  0.00000000E+00  0.00000000E+00  0.00000000E+00
  0.00000000E+00  0.00000000E+00  0.00000000E+00
  0.00000000E+00  0.00000000E+00  0.00000000E+00
  0.00000000E+00  0.00000000E+00  0.00000000E+00
  0.00000000E+00  0.00000000E+00  0.00000000E+00
  0.00000000E+00  0.00000000E+00  0.00000000E+00
  0.00000000E+00  0.00000000E+00  0.00000000E+00
  0.00000000E+00  0.00000000E+00  0.00000000E+00
  0.00000000E+00  0.00000000E+00  0.00000000E+00
  0.00000000E+00  0.00000000E+00  0.00000000E+00
  0.00000000E+00  0.00000000E+00  0.00000000E+00
  0.00000000E+00  0.00000000E+00  0.00000000E+00
  0.00000000E+00  0.00000000E+00  0.00000000E+00
  0.00000000E+00  0.00000000E+00  0.00000000E+00
  0.00000000E+00  0.00000000E+00  0.00000000E+00
  0.00000000E+00  0.00000000E+00  0.00000000E+00
  0.00000000E+00  0.00000000E+00  0.00000000E+00
  0.00000000E+00  0.00000000E+00  0.00000000E+00
  0.00000000E+00  0.00000000E+00  0.00000000E+00
  0.00000000E+00  0.00000000E+00  0.00000000E+00
  0.00000000E+00  0.00000000E+00  0.00000000E+00
  0.00000000E+00  0.00000000E+00  0.00000000E+00
  0.00000000E+00  0.00000000E+00  0.00000000E+00
  0.00000000E+00  0.00000000E+00  0.00000000E+00
  0.00000000E+00  0.00000000E+00  0.00000000E+00
  0.00000000E+00  0.00000000E+00  0.00000000E+00
  0.00000000E+00  0.00000000E+00  0.00000000E+00
  0.00000000E+00  0.00000000E+00  0.00000000E+00
  0.00000000E+00  0.00000000E+00  0.00000000E+00
  0.00000000E+00  0.00000000E+00  0.00000000E+00
  0.00000000E+00  0.00000000E+00  0.00000000E+00
  0.00000000E+00  0.00000000E+00  0.00000000E+00
  0.00000000E+00  0.00000000E+00  0.00000000E+00
  0.00000000E+00  0.00000000E+00  0.00000000E+00
  0.00000000E+00  0.00000000E+00  0.00000000E+00
  0.00000000E+00  0.00000000E+00  0.00000000E+00
  0.00000000E+00  0.00000000E+00  0.00000000E+00
  0.00000000E+00  0.00000000E+00  0.00000000E+00
  0.00000000E+00  0.00000000E+00  0.00000000E+00
  0.00000000E+00  0.00000000E+00  0.00000000E+00
  0.00000000E+00  0.00000000E+00  0.00000000E+00
  0.00000000E+00  0.00000000E+00  0.00000000E+00
  0.00000000E+00  0.00000000E+00  0.00000000E+00
  0.00000000E+00  0.00000000E+00  0.00000000E+00
  0.00000000E+00  0.00000000E+00  0.00000000E+00
  0.00000000E+00  0.00000000E+00  0.00000000E+00
  0.00000000E+00  0.00000000E+00  0.00000000E+00
  0.00000000E+00  0.00000000E+00  0.00000000E+00
