New POSCAR file                         
   1.00000000000000     
    10.2500000000000000    0.0000000000000000    0.0000000000000000
     0.0000000000000000   10.2500000000000000    0.0000000000000000
     0.0000000000000000    0.0000000000000000   12.3499999999999996
   Li   P    S    Cl
    30     5    25     5
Direct
  0.6172858536585366  0.8992682926829261  0.9985748987854279
  0.7369473170731737  0.5666917073170765  0.6122882591093131
  0.2376712195121939  0.1750195121951208  0.0330283400809748
  0.1477092682926795  0.7400448780487778  0.2069514170040492
  0.3003512195121942  0.2134653658536578  0.3213700404858315
  0.1959395121951246  0.0462059512195125  0.6620558704453430
  0.7340419512195098  0.5566439024390277  0.2153562753036411
  0.5138439024390209  0.0658495609756073  0.3010194331983840
  0.9811024390243901  0.9369239024390268  0.5772097165991923
  0.9446634146341495  0.4080068292682952  0.2250647773279368
  0.4281541463414626  0.9637268292682961  0.5275943319838063
  0.8876653658536569  0.5837043902439021  0.0055708097166018
  0.0238111219512191  0.3662975609756103  0.7327368421052611
  0.2970341463414599  0.5234409756097591  0.5969279352226735
  0.6282546341463444  0.2243209756097571  0.9860404858299603
  0.8616400000000013  0.1855590243902441  0.8235708502024295
  0.6276565853658553  0.5364702439024356  0.9865101214574921
  0.4746468292682948  0.4030487804878078  0.4319174089068838
  0.4693297560975580  0.6655570731707314  0.1434898785425105
  0.2081560975609733  0.7552419512195101  0.8675708502024264
  0.7028995121951240  0.2368243902439033  0.2181319838056694
  0.9651521951219522  0.6980165853658562  0.7328040485829987
  0.0122357073170747  0.3725443902439025  0.4597263157894744
  0.9109317073170757  0.2010604878048809  0.0422336842105295
  0.7217648780487806  0.1380214634146313  0.4472534412955440
  0.5410234146341466  0.6316565853658531  0.7741060728744955
  0.6258351219512193  0.8167629268292700  0.2519894736842119
  0.6973073170731681  0.0226332682926795  0.7729408906882611
  0.6023853658536567  0.2770273170731699  0.6193846153846181
  0.8721229268292703  0.8690390243902471  0.0434331983805691
  0.2870146341463382  0.6082243902439046  0.3373967611336042
  0.2847121951219478  0.4643092682926806  0.8840323886639680
  0.0950195121951225  0.4322741463414630  0.9768421052631595
  0.1979639024390210  0.7106478048780502  0.4882971659919022
  0.9919024390243933  0.6206721951219478  0.4538145748987858
  0.3697248780487783  0.1039268292682962  0.8067506072874480
  0.3848487804878076  0.8863726829268259  0.2177441295546529
  0.4332399999999978  0.9101268292682931  0.8277246963562774
  0.1980039024390265  0.9086224390243913  0.4778631578947383
  0.8664195121951224  0.7368712195121958  0.5466121457489876
  0.0262213658536581  0.1974097560975636  0.5927708502024274
  0.4943863414634180  0.6164214634146319  0.3368720647773245
  0.3979824390243891  0.6154019512195106  0.9484615384615367
  0.1751219512195092  0.3906019512195087  0.1371465587044511
  0.1808848780487793  0.5550048780487771  0.7511700404858317
  0.7759746341463440  0.3779170731707282  0.0821991902834043
  0.7698975609756076  0.5734009756097578  0.8182510121457511
  0.0787898536585345  0.2443170731707340  0.9041457489878511
  0.9489590243902413  0.6538702439024391  0.2902914979757085
  0.0934233170731673  0.2138682926829247  0.1896631578947350
  0.7835951219512225  0.0438214634146377  0.9510607287449417
  0.8354965853658527  0.1240565853658566  0.6150315789473666
  0.4860517073170740  0.1728263414634128  0.4632429149797588
  0.6872312195121921  0.7224478048780512  0.0874356275303612
  0.8021160975609760  0.3997307317073151  0.7381846153846183
  0.4610868292682895  0.1884439024390261  0.1397943319838078
  0.5364097560975623  0.2183278048780508  0.8027611336032408
  0.5427063414634148  0.8540848780487806  0.6896372469635637
  0.4112399999999994  0.0074414731707293  0.0807634817813749
  0.2443619512195099  0.4275141463414656  0.4121101214574878
  0.5229219512195158  0.4986243902439043  0.6097991902834039
  0.7934107317073185  0.3469678048780480  0.3757360323886658
  0.0735264390243913  0.9002556097561012  0.7613805668016198
  0.7440370731707304  0.0186190243902473  0.2858137651821835
  0.0679971707317080  0.7599629268292674  0.0286179757084994
 
  0.00000000E+00  0.00000000E+00  0.00000000E+00
  0.00000000E+00  0.00000000E+00  0.00000000E+00
  0.00000000E+00  0.00000000E+00  0.00000000E+00
  0.00000000E+00  0.00000000E+00  0.00000000E+00
  0.00000000E+00  0.00000000E+00  0.00000000E+00
  0.00000000E+00  0.00000000E+00  0.00000000E+00
  0.00000000E+00  0.00000000E+00  0.00000000E+00
  0.00000000E+00  0.00000000E+00  0.00000000E+00
  0.00000000E+00  0.00000000E+00  0.00000000E+00
  0.00000000E+00  0.00000000E+00  0.00000000E+00
  0.00000000E+00  0.00000000E+00  0.00000000E+00
  0.00000000E+00  0.00000000E+00  0.00000000E+00
  0.00000000E+00  0.00000000E+00  0.00000000E+00
  0.00000000E+00  0.00000000E+00  0.00000000E+00
  0.00000000E+00  0.00000000E+00  0.00000000E+00
  0.00000000E+00  0.00000000E+00  0.00000000E+00
  0.00000000E+00  0.00000000E+00  0.00000000E+00
  0.00000000E+00  0.00000000E+00  0.00000000E+00
  0.00000000E+00  0.00000000E+00  0.00000000E+00
  0.00000000E+00  0.00000000E+00  0.00000000E+00
  0.00000000E+00  0.00000000E+00  0.00000000E+00
  0.00000000E+00  0.00000000E+00  0.00000000E+00
  0.00000000E+00  0.00000000E+00  0.00000000E+00
  0.00000000E+00  0.00000000E+00  0.00000000E+00
  0.00000000E+00  0.00000000E+00  0.00000000E+00
  0.00000000E+00  0.00000000E+00  0.00000000E+00
  0.00000000E+00  0.00000000E+00  0.00000000E+00
  0.00000000E+00  0.00000000E+00  0.00000000E+00
  0.00000000E+00  0.00000000E+00  0.00000000E+00
  0.00000000E+00  0.00000000E+00  0.00000000E+00
  0.00000000E+00  0.00000000E+00  0.00000000E+00
  0.00000000E+00  0.00000000E+00  0.00000000E+00
  0.00000000E+00  0.00000000E+00  0.00000000E+00
  0.00000000E+00  0.00000000E+00  0.00000000E+00
  0.00000000E+00  0.00000000E+00  0.00000000E+00
  0.00000000E+00  0.00000000E+00  0.00000000E+00
  0.00000000E+00  0.00000000E+00  0.00000000E+00
  0.00000000E+00  0.00000000E+00  0.00000000E+00
  0.00000000E+00  0.00000000E+00  0.00000000E+00
  0.00000000E+00  0.00000000E+00  0.00000000E+00
  0.00000000E+00  0.00000000E+00  0.00000000E+00
  0.00000000E+00  0.00000000E+00  0.00000000E+00
  0.00000000E+00  0.00000000E+00  0.00000000E+00
  0.00000000E+00  0.00000000E+00  0.00000000E+00
  0.00000000E+00  0.00000000E+00  0.00000000E+00
  0.00000000E+00  0.00000000E+00  0.00000000E+00
  0.00000000E+00  0.00000000E+00  0.00000000E+00
  0.00000000E+00  0.00000000E+00  0.00000000E+00
  0.00000000E+00  0.00000000E+00  0.00000000E+00
  0.00000000E+00  0.00000000E+00  0.00000000E+00
  0.00000000E+00  0.00000000E+00  0.00000000E+00
  0.00000000E+00  0.00000000E+00  0.00000000E+00
  0.00000000E+00  0.00000000E+00  0.00000000E+00
  0.00000000E+00  0.00000000E+00  0.00000000E+00
  0.00000000E+00  0.00000000E+00  0.00000000E+00
  0.00000000E+00  0.00000000E+00  0.00000000E+00
  0.00000000E+00  0.00000000E+00  0.00000000E+00
  0.00000000E+00  0.00000000E+00  0.00000000E+00
  0.00000000E+00  0.00000000E+00  0.00000000E+00
  0.00000000E+00  0.00000000E+00  0.00000000E+00
  0.00000000E+00  0.00000000E+00  0.00000000E+00
  0.00000000E+00  0.00000000E+00  0.00000000E+00
  0.00000000E+00  0.00000000E+00  0.00000000E+00
  0.00000000E+00  0.00000000E+00  0.00000000E+00
  0.00000000E+00  0.00000000E+00  0.00000000E+00
