New POSCAR file                         
   1.00000000000000     
    16.0260819999999988    0.0000000000000000    0.0000000000000000
     0.0000000000000000   16.1000000000000014    0.0000000000000000
     0.0000000000000000    0.0000000000000000   16.4253670000000014
   Li   P    S    Cl
    96    16    80    16
Direct
  0.7488917128965156  0.8389503105590066  0.1595026765611962
  0.5593238571972847  0.6785093167701888  0.0410266023279746
  0.6698081290236786  0.6503602484472069  0.1955274424005253
  0.8130371478194078  0.9238881987577656  0.9877891921684281
  0.5692532959709027  0.7930372670807486  0.2704298783704502
  0.8959769455815803  0.7673975155279535  0.9092643105021665
  0.2362480112107264  0.0215874534161458  0.0356313499722702
  0.2299557683531148  0.8631366459627330  0.2997923882005225
  0.0854400969619391  0.9662422360248470  0.3630268961418039
  0.2175765729889534  0.7206149068322958  0.0511917937663142
  0.1001698356466676  0.6973291925465830  0.9020985649818343
  0.3119570959389790  0.8368447204968916  0.4335951823785749
  0.3300600858026286  0.5150813664596257  0.5768041590790602
  0.5049618490657934  0.8027763975155295  0.5148372027243013
  0.6966019517434177  0.8577453416149083  0.7707529457332640
  0.3757119176103032  0.6289006211180137  0.4408784290786301
  0.7203756975660056  0.5245298136645928  0.7437824676915881
  0.1792808747640251  0.7331614906832300  0.6243087292965797
  0.0148607750790219  0.9131366459627301  0.8636762880244930
  0.9434433194588649  0.4788360248447177  0.0034512044692789
  0.1722473403043878  0.4858403726708076  0.6899998033529471
  0.5429511717211994  0.9204658385093154  0.8607235381711718
  0.0139994915787867  0.5837347826086940  0.7383640195071450
  0.8694077566806442  0.6201795031055894  0.8340270266107268
  0.3738118898929912  0.4795267080745305  0.8863850652469409
  0.0928349174801397  0.5131347826086952  0.8520661973641168
  0.2728832911250549  0.6052503105590077  0.8447360719550403
  0.4124632583310159  0.6985590062111768  0.9106828480605600
  0.0509194948584408  0.3058670807453439  0.7075640988721901
  0.5247084097036350  0.6300993788819866  0.7161483819509158
  0.2501335011264771  0.2511838509316746  0.0060702996773188
  0.3668813126002988  0.1528763975155272  0.1299800485432101
  0.4719519093937024  0.0732354037267058  0.0549206602202545
  0.4447924327355892  0.3174670807453381  0.0350762938812892
  0.6452668843202005  0.3874888198757773  0.1771990848058351
  0.0984882019198423  0.1550807453416141  0.1129241130502621
  0.7906361642227964  0.0938795031055903  0.4942391850361716
  0.8233640636557311  0.3102385093167683  0.6852693154436054
  0.6614529989301161  0.9865403726708095  0.9489590095612499
  0.5983739506636709  0.2938776397515497  0.7090556941589199
  0.8655765021045099  0.1830559006211203  0.8037202456419976
  0.7594744616931308  0.3097037267080722  0.8811736139594331
  0.4756309121593176  0.2193683229813672  0.3668776472391784
  0.2432990171896066  0.0234614285714301  0.7162579685434096
  0.3326109276116256  0.0788633540372672  0.3171344664627611
  0.9965567379475502  0.1301670807453448  0.6185980501988197
  0.4014761686605652  0.9822173913043457  0.4818138918905106
  0.9440111438341603  0.2772664596273273  0.4359598175188424
  0.3886177544829721  0.4193099378882010  0.4030406139479226
  0.0196421683103836  0.2337080745341638  0.2677590095856033
  0.1853522276998234  0.2766136645962760  0.3106652046191698
  0.0056731894919793  0.3787633540372681  0.1889418970060177
  0.1365074757510882  0.4508602484472064  0.2915027712927198
  0.2792597716647123  0.4936440993788835  0.1924462327082281
  0.7847083273378956  0.6058894409937920  0.3031329528283919
  0.1038450945153002  0.5172236024844707  0.0678103569923252
  0.8234264619387304  0.5137981366459599  0.1397332552752104
  0.1135211962599456  0.7165714285714273  0.2878584082778772
  0.9310011018288833  0.6633167701863343  0.0454064740227693
  0.0848223539602486  0.4249490683229808  0.4418659260398883
  0.4291828782605762  0.0262344720496870  0.7605674807753147
  0.3795088531307869  0.9306521739130460  0.9342804943110252
  0.3958291240491576  0.8635031055900626  0.6755830782959080
  0.0980657655439430  0.8657080745341617  0.7201422044329391
  0.2304443469089961  0.8485403726708043  0.8501179912753258
  0.3139812962394686  0.7524347826086952  0.7458767892370375
  0.0449681962191377  0.8165341614906865  0.4773506735039774
  0.8567471450601616  0.9375403726708100  0.5112677238809908
  0.9134609444778832  0.7716459627329186  0.2849062672389593
  0.8804522527714482  0.7541366459627312  0.5391088065185983
  0.7840843445079102  0.7859875776397516  0.4054198606338630
  0.7472443982253409  0.1216062111801222  0.6791081136878105
  0.0047371778080247  0.3171571428571411  0.8626595679719031
  0.3893553021880223  0.1604708074534145  0.8647538895173525
  0.1204935804022469  0.1577223602484494  0.8412719180034145
  0.2554248755247883  0.3445552795031048  0.7825091518503058
  0.1244240482483505  0.8616583850931647  0.0741310681216447
  0.2138632511676875  0.4493645962732913  0.9546209835067927
  0.5936160815850045  0.4284310559006244  0.3888899407848854
  0.4764495776322590  0.5462583850931679  0.1271301883239531
  0.7072283793381331  0.2210161490683262  0.3374487766392065
  0.5187805728187342  0.5849770186335377  0.3037642933640399
  0.4268685259441440  0.7242795031055920  0.2579029132195316
  0.7531098368272424  0.4170298136645982  0.3590744730391719
  0.8123258073932220  0.0398696273291961  0.2749241462915251
  0.5002682502186104  0.8974844720496904  0.1344103909519916
  0.6623515342053068  0.6670931677018643  0.3970864090890629
  0.6833173572929425  0.9495403726708105  0.3416051525667569
  0.4803563341308248  0.0228414285714251  0.2502391575177612
  0.5368180444852300  0.9393105590062092  0.3714017470659883
  0.3989721255638159  0.2400229813664581  0.7357522057193577
  0.7960835343286021  0.5468956521739159  0.5855394281296711
  0.5724474640776194  0.0672726708074549  0.7165562876007598
  0.1997082006693844  0.1770590062111808  0.6417269093591642
  0.5719258144317507  0.0983118012422395  0.4737087457467481
  0.6249812025172474  0.1788428571428540  0.8801690701949028
  0.6944679304648531  0.9186024844720464  0.5741125906045212
  0.6351521226460690  0.6929192546583849  0.5979196690095279
  0.3513641075841250  0.2966652173913076  0.2224096423538029
  0.2205972738689326  0.9489689440993772  0.5315491580796916
  0.9309823823439842  0.5595534161490647  0.3801747626095633
  0.8851508434812700  0.4324813664596263  0.7301572013581179
  0.5359513323343776  0.3293049689441006  0.5621536492913677
  0.1002996240753049  0.6002124223602507  0.5258275203226788
  0.5986522470058517  0.1096322981366455  0.2447379105745426
  0.7933629691898503  0.0101627950310572  0.8573020012277368
  0.9080759726550767  0.8326086956521763  0.1176637331756396
  0.3333384915913911  0.5458720496894429  0.0546045637823482
  0.8292232624293305  0.2607850931677049  0.1734676613314008
  0.6766594604969569  0.4803385093167734  0.9909367626306320
  0.2751726841282860  0.6624099378881994  0.2644409710906288
  0.5165978808794307  0.4075273291925470  0.8470130378213128
  0.6784565310473241  0.0472729192546595  0.5807918934170573
  0.6421719294834531  0.8823975155279484  0.4622100681220687
  0.6046318744656389  0.8526832298136640  0.6514009702188091
  0.7861247683619723  0.8671739130434801  0.6411546238205830
  0.6883591385592567  0.6801055900621122  0.7061029443055986
  0.7306402151193296  0.7359316770186339  0.2869257046128695
  0.5202001337569584  0.9649627329192541  0.6386158677611249
  0.4972456773901470  0.7006645962732918  0.4204965405034784
  0.4318903397598959  0.3924583850931711  0.1793877725837092
  0.3358362948598383  0.2842198757764010  0.3508201673667344
  0.1185093150028820  0.1468975155279537  0.2563084282987376
  0.2351304579622138  0.3470198757763967  0.1795235381955251
  0.2510538758007073  0.9806397515527934  0.4180381479451896
  0.2768530698894480  0.0574511801242252  0.5666850548910105
  0.2823023119437451  0.8503416149068315  0.5728712180373208
  0.0845696409141041  0.9403229813664566  0.5243054843158177
  0.9145903534001647  0.4398062111801266  0.4309675394163150
  0.6569665623824932  0.5350751552795003  0.3093142454594755
  0.0724219431798758  0.5845795031055872  0.3929963939314121
  0.6754988524331793  0.3125913043478263  0.4468636834720314
  0.8750048826656425  0.3992826086956498  0.8576064084291062
  0.0146798200583262  0.4335776397515545  0.7743023337012787
  0.8828109078688087  0.5596608695652208  0.7066691417001536
  0.6770276103666504  0.4980521739130452  0.5430454004467578
  0.5600632768508262  0.5821689440993794  0.5936701444783523
  0.4917178134992710  0.4425285714285678  0.5252929812770688
  0.4232076186805998  0.2397055900621083  0.5788016791344717
  0.5715245934720627  0.2691080745341594  0.4933807567282997
  0.0271386980298729  0.6973354037267114  0.5678168408657172
  0.3482947360434068  0.6470496894409905  0.6054701852323916
  0.0632762268407205  0.4932515527950301  0.5743183698726497
  0.1777546127618734  0.7122670807453417  0.7629783858101931
  0.4551811228720766  0.0718000000000032  0.3899985918122866
  0.6842907705077295  0.1031714285714287  0.1587836667515532
  0.6751119830785868  0.0847608695652156  0.3600924107205614
  0.5855897904428531  0.2359304347826097  0.2621025149696834
  0.7538648560515284  0.0984099378881993  0.9321009387491941
  0.6850395499037134  0.0022670248447199  0.7943445038397030
  0.7984858682240628  0.8907267080745314  0.8919435407440233
  0.8739066728848641  0.0394986956521706  0.7611275900258434
  0.8302902730686128  0.9442298136645988  0.1511814013044557
  0.9235445070105115  0.5668453416149077  0.2526044014724320
  0.9786796298683598  0.8927204968944125  0.0229270371858377
  0.8422021052931115  0.7774906832298143  0.0663017149023233
  0.3698196477467164  0.5787409937888199  0.2878985900284619
  0.4457440065513225  0.5725409937888202  0.9861453932810136
  0.2499999688008572  0.6045720496894376  0.9813357594993164
  0.3284745454316251  0.4053341614906856  0.0060749023142037
  0.8461768759201433  0.1961875776397548  0.2824466570518638
  0.7267840012299942  0.2264975155279529  0.0919096663106558
  0.9504818457811481  0.2638788819875799  0.1181197351632974
  0.8282872881843488  0.3697962732919251  0.2189339209285279
  0.6323192405979228  0.5095322981366479  0.0988172745242153
  0.6083795153425555  0.3808850931676986  0.9408252491405520
  0.7608971425455096  0.4272583850931682  0.9925014156456911
  0.7303594228458365  0.5606962732919243  0.9190236053781931
  0.1700490487943327  0.5926509316770208  0.2140396619448452
  0.2868349232207876  0.7687639751552808  0.1728022271892016
  0.4401805756391397  0.7808447204968942  0.3604479583317683
  0.2544027916492624  0.6971366459627362  0.3626269050791961
  0.5077323328309404  0.2889341614906797  0.8140700904886913
  0.6990542042652734  0.4274260869565225  0.6400709341836901
  0.5007206377703568  0.0972347826086946  0.8633901452552024
  0.5642732890047597  0.4745478260869547  0.7542723398509139
  0.5278108523343406  0.6944596273291950  0.1685338294115439
  0.2347535723328988  0.8911987577639735  0.9931832877767661
  0.4358345352282598  0.7315714285714279  0.6542989267758799
  0.9865293338696262  0.6044329192546556  0.9175015693713249
  0.2481030609976926  0.4720695652173887  0.8042925311805789
  0.3915236425222304  0.1840708074534163  0.9977615720854232
  0.7114153041273568  0.2499863354037259  0.7513317662856451
  0.2610950075008986  0.1585459627329158  0.7708320916056266
  0.0507101486189825  0.3387701863354025  0.3329971257263225
  0.9686896647602339  0.5069068322981352  0.1324128708965802
  0.3442663028929971  0.9084472049689438  0.7806827086420682
  0.8971812324434651  0.8253478260869542  0.4020421583274185
  0.9984910847205200  0.2201863354037243  0.7985514113626806
  0.5359307409009872  0.4474484472049696  0.2537733251257066
  0.5825516180436381  0.9142360248447190  0.2409900491112325
  0.4674879362279540  0.1420956521739143  0.6426036020991219
  0.5217363794843948  0.9400745341614893  0.0081363783226251
  0.3712017697151424  0.0323958385093164  0.1561292359555821
  0.2461992893833909  0.4443198757764009  0.4462512161828727
  0.5515384234275089  0.7821490683229797  0.8951032874942797
  0.3936813751483328  0.6352236024844728  0.7819733951758892
  0.1589714816135341  0.1576670807453411  0.9881179519459167
  0.8619636415188694  0.2139409937888175  0.5633195288726256
  0.0777557484106239  0.2348844720496928  0.5774032324513669
  0.0762332303054478  0.7285403726708068  0.0626597871450940
  0.0740786175934929  0.8610124223602469  0.2712669981742266
  0.0990410507072141  0.9322608695652193  0.7667530351072216
  0.9448472808263446  0.7941925465838509  0.7687621226362822
  0.0691847202578870  0.4364503105590032  0.9582982224993799
  0.7626754936109776  0.6719999999999970  0.4998335805830081
  0.9087873130812625  0.0039684285714259  0.3804109825978301
  0.2514444890522824  0.3842857142857170  0.6174839198417885
 
  0.00000000E+00  0.00000000E+00  0.00000000E+00
  0.00000000E+00  0.00000000E+00  0.00000000E+00
  0.00000000E+00  0.00000000E+00  0.00000000E+00
  0.00000000E+00  0.00000000E+00  0.00000000E+00
  0.00000000E+00  0.00000000E+00  0.00000000E+00
  0.00000000E+00  0.00000000E+00  0.00000000E+00
  0.00000000E+00  0.00000000E+00  0.00000000E+00
  0.00000000E+00  0.00000000E+00  0.00000000E+00
  0.00000000E+00  0.00000000E+00  0.00000000E+00
  0.00000000E+00  0.00000000E+00  0.00000000E+00
  0.00000000E+00  0.00000000E+00  0.00000000E+00
  0.00000000E+00  0.00000000E+00  0.00000000E+00
  0.00000000E+00  0.00000000E+00  0.00000000E+00
  0.00000000E+00  0.00000000E+00  0.00000000E+00
  0.00000000E+00  0.00000000E+00  0.00000000E+00
  0.00000000E+00  0.00000000E+00  0.00000000E+00
  0.00000000E+00  0.00000000E+00  0.00000000E+00
  0.00000000E+00  0.00000000E+00  0.00000000E+00
  0.00000000E+00  0.00000000E+00  0.00000000E+00
  0.00000000E+00  0.00000000E+00  0.00000000E+00
  0.00000000E+00  0.00000000E+00  0.00000000E+00
  0.00000000E+00  0.00000000E+00  0.00000000E+00
  0.00000000E+00  0.00000000E+00  0.00000000E+00
  0.00000000E+00  0.00000000E+00  0.00000000E+00
  0.00000000E+00  0.00000000E+00  0.00000000E+00
  0.00000000E+00  0.00000000E+00  0.00000000E+00
  0.00000000E+00  0.00000000E+00  0.00000000E+00
  0.00000000E+00  0.00000000E+00  0.00000000E+00
  0.00000000E+00  0.00000000E+00  0.00000000E+00
  0.00000000E+00  0.00000000E+00  0.00000000E+00
  0.00000000E+00  0.00000000E+00  0.00000000E+00
  0.00000000E+00  0.00000000E+00  0.00000000E+00
  0.00000000E+00  0.00000000E+00  0.00000000E+00
  0.00000000E+00  0.00000000E+00  0.00000000E+00
  0.00000000E+00  0.00000000E+00  0.00000000E+00
  0.00000000E+00  0.00000000E+00  0.00000000E+00
  0.00000000E+00  0.00000000E+00  0.00000000E+00
  0.00000000E+00  0.00000000E+00  0.00000000E+00
  0.00000000E+00  0.00000000E+00  0.00000000E+00
  0.00000000E+00  0.00000000E+00  0.00000000E+00
  0.00000000E+00  0.00000000E+00  0.00000000E+00
  0.00000000E+00  0.00000000E+00  0.00000000E+00
  0.00000000E+00  0.00000000E+00  0.00000000E+00
  0.00000000E+00  0.00000000E+00  0.00000000E+00
  0.00000000E+00  0.00000000E+00  0.00000000E+00
  0.00000000E+00  0.00000000E+00  0.00000000E+00
  0.00000000E+00  0.00000000E+00  0.00000000E+00
  0.00000000E+00  0.00000000E+00  0.00000000E+00
  0.00000000E+00  0.00000000E+00  0.00000000E+00
  0.00000000E+00  0.00000000E+00  0.00000000E+00
  0.00000000E+00  0.00000000E+00  0.00000000E+00
  0.00000000E+00  0.00000000E+00  0.00000000E+00
  0.00000000E+00  0.00000000E+00  0.00000000E+00
  0.00000000E+00  0.00000000E+00  0.00000000E+00
  0.00000000E+00  0.00000000E+00  0.00000000E+00
  0.00000000E+00  0.00000000E+00  0.00000000E+00
  0.00000000E+00  0.00000000E+00  0.00000000E+00
  0.00000000E+00  0.00000000E+00  0.00000000E+00
  0.00000000E+00  0.00000000E+00  0.00000000E+00
  0.00000000E+00  0.00000000E+00  0.00000000E+00
  0.00000000E+00  0.00000000E+00  0.00000000E+00
  0.00000000E+00  0.00000000E+00  0.00000000E+00
  0.00000000E+00  0.00000000E+00  0.00000000E+00
  0.00000000E+00  0.00000000E+00  0.00000000E+00
  0.00000000E+00  0.00000000E+00  0.00000000E+00
  0.00000000E+00  0.00000000E+00  0.00000000E+00
  0.00000000E+00  0.00000000E+00  0.00000000E+00
  0.00000000E+00  0.00000000E+00  0.00000000E+00
  0.00000000E+00  0.00000000E+00  0.00000000E+00
  0.00000000E+00  0.00000000E+00  0.00000000E+00
  0.00000000E+00  0.00000000E+00  0.00000000E+00
  0.00000000E+00  0.00000000E+00  0.00000000E+00
  0.00000000E+00  0.00000000E+00  0.00000000E+00
  0.00000000E+00  0.00000000E+00  0.00000000E+00
  0.00000000E+00  0.00000000E+00  0.00000000E+00
  0.00000000E+00  0.00000000E+00  0.00000000E+00
  0.00000000E+00  0.00000000E+00  0.00000000E+00
  0.00000000E+00  0.00000000E+00  0.00000000E+00
  0.00000000E+00  0.00000000E+00  0.00000000E+00
  0.00000000E+00  0.00000000E+00  0.00000000E+00
  0.00000000E+00  0.00000000E+00  0.00000000E+00
  0.00000000E+00  0.00000000E+00  0.00000000E+00
  0.00000000E+00  0.00000000E+00  0.00000000E+00
  0.00000000E+00  0.00000000E+00  0.00000000E+00
  0.00000000E+00  0.00000000E+00  0.00000000E+00
  0.00000000E+00  0.00000000E+00  0.00000000E+00
  0.00000000E+00  0.00000000E+00  0.00000000E+00
  0.00000000E+00  0.00000000E+00  0.00000000E+00
  0.00000000E+00  0.00000000E+00  0.00000000E+00
  0.00000000E+00  0.00000000E+00  0.00000000E+00
  0.00000000E+00  0.00000000E+00  0.00000000E+00
  0.00000000E+00  0.00000000E+00  0.00000000E+00
  0.00000000E+00  0.00000000E+00  0.00000000E+00
  0.00000000E+00  0.00000000E+00  0.00000000E+00
  0.00000000E+00  0.00000000E+00  0.00000000E+00
  0.00000000E+00  0.00000000E+00  0.00000000E+00
  0.00000000E+00  0.00000000E+00  0.00000000E+00
  0.00000000E+00  0.00000000E+00  0.00000000E+00
  0.00000000E+00  0.00000000E+00  0.00000000E+00
  0.00000000E+00  0.00000000E+00  0.00000000E+00
  0.00000000E+00  0.00000000E+00  0.00000000E+00
  0.00000000E+00  0.00000000E+00  0.00000000E+00
  0.00000000E+00  0.00000000E+00  0.00000000E+00
  0.00000000E+00  0.00000000E+00  0.00000000E+00
  0.00000000E+00  0.00000000E+00  0.00000000E+00
  0.00000000E+00  0.00000000E+00  0.00000000E+00
  0.00000000E+00  0.00000000E+00  0.00000000E+00
  0.00000000E+00  0.00000000E+00  0.00000000E+00
  0.00000000E+00  0.00000000E+00  0.00000000E+00
  0.00000000E+00  0.00000000E+00  0.00000000E+00
  0.00000000E+00  0.00000000E+00  0.00000000E+00
  0.00000000E+00  0.00000000E+00  0.00000000E+00
  0.00000000E+00  0.00000000E+00  0.00000000E+00
  0.00000000E+00  0.00000000E+00  0.00000000E+00
  0.00000000E+00  0.00000000E+00  0.00000000E+00
  0.00000000E+00  0.00000000E+00  0.00000000E+00
  0.00000000E+00  0.00000000E+00  0.00000000E+00
  0.00000000E+00  0.00000000E+00  0.00000000E+00
  0.00000000E+00  0.00000000E+00  0.00000000E+00
  0.00000000E+00  0.00000000E+00  0.00000000E+00
  0.00000000E+00  0.00000000E+00  0.00000000E+00
  0.00000000E+00  0.00000000E+00  0.00000000E+00
  0.00000000E+00  0.00000000E+00  0.00000000E+00
  0.00000000E+00  0.00000000E+00  0.00000000E+00
  0.00000000E+00  0.00000000E+00  0.00000000E+00
  0.00000000E+00  0.00000000E+00  0.00000000E+00
  0.00000000E+00  0.00000000E+00  0.00000000E+00
  0.00000000E+00  0.00000000E+00  0.00000000E+00
  0.00000000E+00  0.00000000E+00  0.00000000E+00
  0.00000000E+00  0.00000000E+00  0.00000000E+00
  0.00000000E+00  0.00000000E+00  0.00000000E+00
  0.00000000E+00  0.00000000E+00  0.00000000E+00
  0.00000000E+00  0.00000000E+00  0.00000000E+00
  0.00000000E+00  0.00000000E+00  0.00000000E+00
  0.00000000E+00  0.00000000E+00  0.00000000E+00
  0.00000000E+00  0.00000000E+00  0.00000000E+00
  0.00000000E+00  0.00000000E+00  0.00000000E+00
  0.00000000E+00  0.00000000E+00  0.00000000E+00
  0.00000000E+00  0.00000000E+00  0.00000000E+00
  0.00000000E+00  0.00000000E+00  0.00000000E+00
  0.00000000E+00  0.00000000E+00  0.00000000E+00
  0.00000000E+00  0.00000000E+00  0.00000000E+00
  0.00000000E+00  0.00000000E+00  0.00000000E+00
  0.00000000E+00  0.00000000E+00  0.00000000E+00
  0.00000000E+00  0.00000000E+00  0.00000000E+00
  0.00000000E+00  0.00000000E+00  0.00000000E+00
  0.00000000E+00  0.00000000E+00  0.00000000E+00
  0.00000000E+00  0.00000000E+00  0.00000000E+00
  0.00000000E+00  0.00000000E+00  0.00000000E+00
  0.00000000E+00  0.00000000E+00  0.00000000E+00
  0.00000000E+00  0.00000000E+00  0.00000000E+00
  0.00000000E+00  0.00000000E+00  0.00000000E+00
  0.00000000E+00  0.00000000E+00  0.00000000E+00
  0.00000000E+00  0.00000000E+00  0.00000000E+00
  0.00000000E+00  0.00000000E+00  0.00000000E+00
  0.00000000E+00  0.00000000E+00  0.00000000E+00
  0.00000000E+00  0.00000000E+00  0.00000000E+00
  0.00000000E+00  0.00000000E+00  0.00000000E+00
  0.00000000E+00  0.00000000E+00  0.00000000E+00
  0.00000000E+00  0.00000000E+00  0.00000000E+00
  0.00000000E+00  0.00000000E+00  0.00000000E+00
  0.00000000E+00  0.00000000E+00  0.00000000E+00
  0.00000000E+00  0.00000000E+00  0.00000000E+00
  0.00000000E+00  0.00000000E+00  0.00000000E+00
  0.00000000E+00  0.00000000E+00  0.00000000E+00
  0.00000000E+00  0.00000000E+00  0.00000000E+00
  0.00000000E+00  0.00000000E+00  0.00000000E+00
  0.00000000E+00  0.00000000E+00  0.00000000E+00
  0.00000000E+00  0.00000000E+00  0.00000000E+00
  0.00000000E+00  0.00000000E+00  0.00000000E+00
  0.00000000E+00  0.00000000E+00  0.00000000E+00
  0.00000000E+00  0.00000000E+00  0.00000000E+00
  0.00000000E+00  0.00000000E+00  0.00000000E+00
  0.00000000E+00  0.00000000E+00  0.00000000E+00
  0.00000000E+00  0.00000000E+00  0.00000000E+00
  0.00000000E+00  0.00000000E+00  0.00000000E+00
  0.00000000E+00  0.00000000E+00  0.00000000E+00
  0.00000000E+00  0.00000000E+00  0.00000000E+00
  0.00000000E+00  0.00000000E+00  0.00000000E+00
  0.00000000E+00  0.00000000E+00  0.00000000E+00
  0.00000000E+00  0.00000000E+00  0.00000000E+00
  0.00000000E+00  0.00000000E+00  0.00000000E+00
  0.00000000E+00  0.00000000E+00  0.00000000E+00
  0.00000000E+00  0.00000000E+00  0.00000000E+00
  0.00000000E+00  0.00000000E+00  0.00000000E+00
  0.00000000E+00  0.00000000E+00  0.00000000E+00
  0.00000000E+00  0.00000000E+00  0.00000000E+00
  0.00000000E+00  0.00000000E+00  0.00000000E+00
  0.00000000E+00  0.00000000E+00  0.00000000E+00
  0.00000000E+00  0.00000000E+00  0.00000000E+00
  0.00000000E+00  0.00000000E+00  0.00000000E+00
  0.00000000E+00  0.00000000E+00  0.00000000E+00
  0.00000000E+00  0.00000000E+00  0.00000000E+00
  0.00000000E+00  0.00000000E+00  0.00000000E+00
  0.00000000E+00  0.00000000E+00  0.00000000E+00
  0.00000000E+00  0.00000000E+00  0.00000000E+00
  0.00000000E+00  0.00000000E+00  0.00000000E+00
  0.00000000E+00  0.00000000E+00  0.00000000E+00
  0.00000000E+00  0.00000000E+00  0.00000000E+00
  0.00000000E+00  0.00000000E+00  0.00000000E+00
  0.00000000E+00  0.00000000E+00  0.00000000E+00
  0.00000000E+00  0.00000000E+00  0.00000000E+00
  0.00000000E+00  0.00000000E+00  0.00000000E+00
  0.00000000E+00  0.00000000E+00  0.00000000E+00
  0.00000000E+00  0.00000000E+00  0.00000000E+00
  0.00000000E+00  0.00000000E+00  0.00000000E+00
  0.00000000E+00  0.00000000E+00  0.00000000E+00
  0.00000000E+00  0.00000000E+00  0.00000000E+00
