New POSCAR file                         
   1.00000000000000     
    16.0260819999999988    0.0000000000000000    0.0000000000000000
     0.0000000000000000   16.1000000000000014    0.0000000000000000
     0.0000000000000000    0.0000000000000000   16.4253670000000014
   Li   P    S    Cl
    96    16    80    16
Direct
  0.7062861652648493  0.8743416149068324  0.1800404216234526
  0.5759729670670595  0.6464844720496927  0.0477989928626883
  0.6911109028395117  0.6203391304347861  0.2103027591407880
  0.8263217422698830  0.9329813664596287  0.0154227908575777
  0.5801411723713912  0.7648322981366462  0.2801672559279780
  0.9303459198573947  0.7498571428571452  0.9635766433711979
  0.2175615974010370  0.0230727950310552  0.0242125487972373
  0.2129291488711971  0.8704285714285689  0.2832058486120914
  0.1119281680949840  0.0131221118012448  0.3197310598904721
  0.2370348535593436  0.7455962732919232  0.0374711262159337
  0.0799284566246428  0.7079689440993775  0.8911946990286452
  0.3125155605718248  0.8235279503105559  0.4148187373834631
  0.3895624644875753  0.4961428571428570  0.6166620203980813
  0.5281091161270766  0.7998509316770210  0.5013836220524013
  0.7073781352173256  0.8699875776397548  0.7587166849909650
  0.3587614240336450  0.6162993788819904  0.4387883692340040
  0.7117709743404532  0.5272354037267064  0.7628140059214488
  0.1779929742029296  0.7353167701863370  0.6169481631673719
  0.9604905303741731  0.9188260869565212  0.8619594314087493
  0.9238627382538027  0.4804397515527938  0.9531720052282537
  0.1788035278990847  0.4922962732919274  0.6795403719137596
  0.4485581691145697  0.8788509316770217  0.8679258125556615
  0.0049864027901521  0.6248944099378875  0.7245682851409043
  0.8696074311862390  0.5620503105590089  0.8390253928572804
  0.3463260702147934  0.4447776397515497  0.8763761564657884
  0.0662457611286413  0.5179583850931664  0.8544405735348235
  0.2567664386092616  0.6026279503105556  0.8466660136117525
  0.4101270666155301  0.6798198757763956  0.9324966681109785
  0.0423165187848156  0.3093484472049681  0.6973542813381286
  0.5517168825168852  0.6763726708074529  0.7950629048349427
  0.2806312859250326  0.3050186335403708  0.0647583703913597
  0.3905545971872613  0.1803987577639745  0.1459687323881411
  0.4295192050059384  0.0562749689441020  0.0353241422246455
  0.4572134349493524  0.2995987577639738  0.0362800417183990
  0.6672934782188165  0.3544124223602481  0.2157662595910352
  0.0673495867548937  0.1624552795031065  0.1252227728001429
  0.8203377469302850  0.0958397515527949  0.4853304038807806
  0.7915846181243822  0.3107267080745331  0.6441804314022335
  0.6155497020419602  0.0272110559006222  0.9160586792368193
  0.5760428531440169  0.2810937888198737  0.6838325134531260
  0.8581947852257343  0.1704291925465853  0.7958056584062945
  0.7465704967689533  0.3164006211180137  0.8744096859449186
  0.4911549809866216  0.2373074534161503  0.3634993361183376
  0.2284213945741698  0.9752484472049687  0.7112656904408894
  0.3312887079948794  0.0554336645962721  0.3280876463825706
  0.9666804400476678  0.1490850931676988  0.6677780776526916
  0.4024845249138238  0.0240598136645929  0.5189862728790189
  0.9644091425465078  0.3162795031055907  0.4335245599078519
  0.3567902622737122  0.4056708074534185  0.4129107130452567
  0.0064760058010407  0.2388503105590090  0.3015019390434333
  0.1837960145218247  0.2557639751552827  0.3070488470668593
  0.9629053439262307  0.3899093167701864  0.2307156972504814
  0.1365611382744731  0.4830484472049719  0.3222679895067202
  0.2641051006727650  0.4669496894409946  0.1829663836430555
  0.7832606871723229  0.6026645962732928  0.3401628712466547
  0.1374758971032364  0.5948577639751562  0.0809765772661279
  0.8011939537062176  0.4620888198757740  0.1229847710556484
  0.0892938149199551  0.7128385093167680  0.2708590925243897
  0.9482916660478864  0.6444472049689409  0.0609392776429303
  0.1149108060223298  0.4038677018633550  0.4805341640159426
  0.3820472152831869  0.0429554037267081  0.7396181771768013
  0.3253889503373344  0.9513167701863381  0.9232487773332565
  0.3748932521373618  0.8922484472049703  0.6547372731458623
  0.0910571903975068  0.8285093167701874  0.7339440269432060
  0.2328423129246460  0.8406086956521719  0.8609975046524099
  0.3157540314594698  0.7340310559006227  0.7414994136812894
  0.0649946755545088  0.8039192546583820  0.4486968236387057
  0.9167618136485274  0.9316397515527939  0.5084330840218030
  0.8909102050020721  0.7632857142857148  0.2344373796944694
  0.9040263240884485  0.7255900621117988  0.5133590013544307
  0.7687842855165741  0.7882484472049711  0.4175090882292025
  0.7194085241795207  0.0999173913043450  0.7108943136552170
  0.9828228758594904  0.3240254658385098  0.8822025103000755
  0.3854741289854857  0.1709552795031044  0.8769727945804817
  0.1230818611810420  0.1547639751552765  0.8520479329320310
  0.2160272236220919  0.3227677018633557  0.7705581251243885
  0.1227923331479275  0.8647577639751560  0.0872424950991970
  0.2138070927129903  0.4576031055900600  0.9431691845911274
  0.5626802608397981  0.4268428571428586  0.3986693265362078
  0.5009502634517915  0.5601782608695629  0.1163955727747208
  0.7179858433271491  0.2352161490683216  0.3314026408055284
  0.5093902552102278  0.5757776397515499  0.3067779246576379
  0.4206399293351950  0.7322608695652164  0.2329591783245988
  0.7538149374251333  0.4336180124223574  0.3593198252434817
  0.7989975341446538  0.0654689440993792  0.2540351153188851
  0.4904985510494697  0.8698819875776422  0.1368219048012733
  0.6501963486771132  0.6478260869565204  0.4095263137803826
  0.6972196947451010  0.9385590062111788  0.3315597149214398
  0.4701685664655884  0.0344268322981378  0.2659861420448024
  0.5572247789571989  0.9470683229813659  0.3786186329961438
  0.3742243425436129  0.2329360248447188  0.7077832720571777
  0.8151774089262744  0.5101677018633524  0.5644610558777785
  0.5531189719358736  0.0659018633540356  0.7298710585888273
  0.1848255861913088  0.1619080745341606  0.6415260006062553
  0.5939411766394329  0.0855571428571409  0.4597321935028873
  0.6023480973078748  0.2221130434782594  0.8362065821725650
  0.7008949536137408  0.9339689440993766  0.5683288537784250
  0.6365685636701457  0.6888757763975164  0.6024407247643211
  0.3559029586894695  0.2983751552795013  0.2159397716958154
  0.2216973555982023  0.9516211180124188  0.5190319339592193
  0.9417710454744963  0.5675416149068297  0.3762473008974467
  0.9099042423469470  0.4376919254658418  0.7278558829157333
  0.5251214863370848  0.3327260869565194  0.5728803502533637
  0.1021048064024654  0.6009608695652204  0.5275620325561050
  0.5967572111511714  0.1152310559006224  0.2369950090004096
  0.7794731113942888  0.0114158385093148  0.8478288491209938
  0.9150458608660585  0.8496086956521722  0.1246322228294829
  0.3505953607375787  0.5452260869565251  0.0451176524701111
  0.8423581010006060  0.2505360248447204  0.1757781119898283
  0.6757921243632694  0.4823298136645988  0.9660788705664842
  0.2642779439166745  0.6653229813664581  0.2661955741993438
  0.5164961716781420  0.3995627329192573  0.8508607448466776
  0.6887085689440511  0.0553572670807441  0.5634851263901766
  0.6586076372253657  0.8732236024844724  0.4507692278656563
  0.5896126077477959  0.8669875776397546  0.6647157412068765
  0.8015059451212068  0.8701677018633518  0.6178126796192771
  0.6772335247005472  0.6713167701863370  0.7171468375714198
  0.7312142793229199  0.7352360248447170  0.2851175258367107
  0.4921371299610229  0.9721925465838481  0.6256602972706773
  0.4960301588373284  0.6787267080745352  0.4143097685427648
  0.4347219738423931  0.4061049689440992  0.1773318063456344
  0.3549158178524223  0.2777459627329222  0.3419862703828755
  0.1064065440324100  0.1338130434782627  0.2530257010391281
  0.2369911747612434  0.3304590062111785  0.1908340921697516
  0.2518868928787441  0.9708695652173915  0.3912600552547758
  0.2720209468540062  0.0629559006211196  0.5860429176407465
  0.2650392029692625  0.8435155279503093  0.5621225997568260
  0.0945396385716748  0.9478571428571456  0.5197022386166452
  0.9025474847813726  0.4525490683229805  0.4183529049914085
  0.6550384554378326  0.5346894409937875  0.3284961608468180
  0.0675835803161391  0.5873751552795028  0.3988537973002337
  0.6855075370262043  0.3151888198757788  0.4358362281950861
  0.8486104089571000  0.4104285714285680  0.8498196722179756
  0.0267605644349018  0.4344782608695681  0.7580713417240545
  0.8629370547336492  0.5564347826086973  0.7201361162889057
  0.6716051995740457  0.5073465838509321  0.5392256988839250
  0.5855567193528657  0.5814211180124218  0.5822207808203004
  0.4807612989874883  0.4367068322981353  0.5165522328968351
  0.4122922870355978  0.2480490683229846  0.5819687316575610
  0.5926657557349344  0.2596434782608696  0.4769147623916083
  0.0342741288856487  0.6904285714285692  0.5742349622994709
  0.3527487254838704  0.6476708074534159  0.5917468997800768
  0.0691878401720416  0.4986534161490681  0.5966320265477165
  0.1795354597586609  0.7135341614906849  0.7745397713183522
  0.4627587703594713  0.0835354037267066  0.3958578216243183
  0.6914166544262059  0.0881372670807465  0.1603075292016314
  0.6891391170967438  0.0769745341614936  0.3612345465401177
  0.5913117129938570  0.2397614906832288  0.2689474152997633
  0.7688404439712713  0.0990316770186368  0.9344022571915716
  0.6691903860219881  0.9953105590062137  0.7805183287533239
  0.8094180474054724  0.8937204968944101  0.8871095543862140
  0.8745805743412518  0.0284242857142871  0.7721227781394475
  0.8322932579528768  0.9384596273291947  0.1626222415608751
  0.9070651204704916  0.5692763975155302  0.2672823079082463
  0.9889753465631870  0.8901304347826056  0.0224949616042096
  0.8438930987623792  0.7559937888198789  0.0750065432327958
  0.3682534508434472  0.5776316770186298  0.2841397699058987
  0.4671085546673197  0.5719198757763948  0.9831743789956136
  0.2472269891043837  0.5984931677018608  0.9902427142114973
  0.3339375151081825  0.4151037267080753  0.0151160701614756
  0.8531342844745211  0.1889378881987582  0.2916007904115645
  0.7277948534145793  0.2150515527950319  0.1103853569908040
  0.9514490191676259  0.2592397515527978  0.1118891285655934
  0.8103290623372601  0.3848515527950340  0.2187993729455187
  0.6451608072391011  0.5123732919254635  0.1025389569682034
  0.5979833374121029  0.3887161490683226  0.9586208941328351
  0.7993095255596501  0.4063968944099372  0.0179680612311444
  0.7014253390192309  0.5881378881987587  0.9071151956604666
  0.1685920488863104  0.5883012422360281  0.2182849247751975
  0.2840850308890239  0.7608571428571409  0.1809469462691453
  0.4489937091299012  0.7963913043478286  0.3762071191468692
  0.2257875630487831  0.7097329192546553  0.3689896244023032
  0.4874666184785497  0.2863776397515494  0.7971206975162275
  0.6969513821282050  0.4350714285714261  0.6467678926139087
  0.5065205581751044  0.0895658385093157  0.8584709248810114
  0.5622902715710580  0.4786385093167667  0.7675749345509288
  0.5459637608243852  0.6963913043478271  0.1670416253104108
  0.2403326028158332  0.8813229813664591  0.9974632530280729
  0.4389906403823431  0.7315031055900647  0.6287530744366308
  0.9766891246406928  0.6131347826086966  0.9102384135465584
  0.2187852277306490  0.4689925465838485  0.8049135218713843
  0.3750055690467562  0.1823515527950335  0.0080222256221134
  0.7159079805032817  0.2354975155279533  0.7562936036680341
  0.2530025741787654  0.1665962732919226  0.7765366825593603
  0.0549237798733344  0.3652652173913040  0.3389775096045042
  0.9782865206854652  0.5161552795031028  0.1177051325550309
  0.3427331770797153  0.8986708074534135  0.7794041983962998
  0.9050558957579256  0.8107267080745331  0.3969135057986861
  0.0095674663339409  0.1987571428571400  0.7824847992741937
  0.5159295952685099  0.4334416149068332  0.2481783207644597
  0.5921197707586927  0.9095714285714251  0.2480346405654146
  0.4601611298382196  0.1351273291925494  0.6254228596536109
  0.5380990812352024  0.9387639751552825  0.0221679065070504
  0.3797871494729677  0.0408995652173942  0.1562595222377681
  0.2258374816751854  0.4626652173913044  0.4167170206912303
  0.5480041846784545  0.7694285714285698  0.8726563004650032
  0.3939559275935309  0.6289937888198764  0.8079088887328965
  0.1601763924582471  0.1566875776397509  0.9856887824789524
  0.8621133973980690  0.2127136645962722  0.5660738052306513
  0.0898841026771251  0.2512714285714281  0.5806640423924776
  0.0827238997029980  0.7121677018633505  0.0573984739579956
  0.0788832853844141  0.8494223602484468  0.2788144703250737
  0.1070592300725792  0.9556397515527948  0.7760009258849436
  0.9626807101074348  0.7988509316770163  0.7805609457615148
  0.0745322531108954  0.4312757763975128  0.9531415645081154
  0.7772766918327250  0.6687950310559003  0.4899299966935260
  0.8947851383763066  0.0195604347826119  0.3932660987118268
  0.2539092212307423  0.3961347826086978  0.6283086399226292
 
  0.00000000E+00  0.00000000E+00  0.00000000E+00
  0.00000000E+00  0.00000000E+00  0.00000000E+00
  0.00000000E+00  0.00000000E+00  0.00000000E+00
  0.00000000E+00  0.00000000E+00  0.00000000E+00
  0.00000000E+00  0.00000000E+00  0.00000000E+00
  0.00000000E+00  0.00000000E+00  0.00000000E+00
  0.00000000E+00  0.00000000E+00  0.00000000E+00
  0.00000000E+00  0.00000000E+00  0.00000000E+00
  0.00000000E+00  0.00000000E+00  0.00000000E+00
  0.00000000E+00  0.00000000E+00  0.00000000E+00
  0.00000000E+00  0.00000000E+00  0.00000000E+00
  0.00000000E+00  0.00000000E+00  0.00000000E+00
  0.00000000E+00  0.00000000E+00  0.00000000E+00
  0.00000000E+00  0.00000000E+00  0.00000000E+00
  0.00000000E+00  0.00000000E+00  0.00000000E+00
  0.00000000E+00  0.00000000E+00  0.00000000E+00
  0.00000000E+00  0.00000000E+00  0.00000000E+00
  0.00000000E+00  0.00000000E+00  0.00000000E+00
  0.00000000E+00  0.00000000E+00  0.00000000E+00
  0.00000000E+00  0.00000000E+00  0.00000000E+00
  0.00000000E+00  0.00000000E+00  0.00000000E+00
  0.00000000E+00  0.00000000E+00  0.00000000E+00
  0.00000000E+00  0.00000000E+00  0.00000000E+00
  0.00000000E+00  0.00000000E+00  0.00000000E+00
  0.00000000E+00  0.00000000E+00  0.00000000E+00
  0.00000000E+00  0.00000000E+00  0.00000000E+00
  0.00000000E+00  0.00000000E+00  0.00000000E+00
  0.00000000E+00  0.00000000E+00  0.00000000E+00
  0.00000000E+00  0.00000000E+00  0.00000000E+00
  0.00000000E+00  0.00000000E+00  0.00000000E+00
  0.00000000E+00  0.00000000E+00  0.00000000E+00
  0.00000000E+00  0.00000000E+00  0.00000000E+00
  0.00000000E+00  0.00000000E+00  0.00000000E+00
  0.00000000E+00  0.00000000E+00  0.00000000E+00
  0.00000000E+00  0.00000000E+00  0.00000000E+00
  0.00000000E+00  0.00000000E+00  0.00000000E+00
  0.00000000E+00  0.00000000E+00  0.00000000E+00
  0.00000000E+00  0.00000000E+00  0.00000000E+00
  0.00000000E+00  0.00000000E+00  0.00000000E+00
  0.00000000E+00  0.00000000E+00  0.00000000E+00
  0.00000000E+00  0.00000000E+00  0.00000000E+00
  0.00000000E+00  0.00000000E+00  0.00000000E+00
  0.00000000E+00  0.00000000E+00  0.00000000E+00
  0.00000000E+00  0.00000000E+00  0.00000000E+00
  0.00000000E+00  0.00000000E+00  0.00000000E+00
  0.00000000E+00  0.00000000E+00  0.00000000E+00
  0.00000000E+00  0.00000000E+00  0.00000000E+00
  0.00000000E+00  0.00000000E+00  0.00000000E+00
  0.00000000E+00  0.00000000E+00  0.00000000E+00
  0.00000000E+00  0.00000000E+00  0.00000000E+00
  0.00000000E+00  0.00000000E+00  0.00000000E+00
  0.00000000E+00  0.00000000E+00  0.00000000E+00
  0.00000000E+00  0.00000000E+00  0.00000000E+00
  0.00000000E+00  0.00000000E+00  0.00000000E+00
  0.00000000E+00  0.00000000E+00  0.00000000E+00
  0.00000000E+00  0.00000000E+00  0.00000000E+00
  0.00000000E+00  0.00000000E+00  0.00000000E+00
  0.00000000E+00  0.00000000E+00  0.00000000E+00
  0.00000000E+00  0.00000000E+00  0.00000000E+00
  0.00000000E+00  0.00000000E+00  0.00000000E+00
  0.00000000E+00  0.00000000E+00  0.00000000E+00
  0.00000000E+00  0.00000000E+00  0.00000000E+00
  0.00000000E+00  0.00000000E+00  0.00000000E+00
  0.00000000E+00  0.00000000E+00  0.00000000E+00
  0.00000000E+00  0.00000000E+00  0.00000000E+00
  0.00000000E+00  0.00000000E+00  0.00000000E+00
  0.00000000E+00  0.00000000E+00  0.00000000E+00
  0.00000000E+00  0.00000000E+00  0.00000000E+00
  0.00000000E+00  0.00000000E+00  0.00000000E+00
  0.00000000E+00  0.00000000E+00  0.00000000E+00
  0.00000000E+00  0.00000000E+00  0.00000000E+00
  0.00000000E+00  0.00000000E+00  0.00000000E+00
  0.00000000E+00  0.00000000E+00  0.00000000E+00
  0.00000000E+00  0.00000000E+00  0.00000000E+00
  0.00000000E+00  0.00000000E+00  0.00000000E+00
  0.00000000E+00  0.00000000E+00  0.00000000E+00
  0.00000000E+00  0.00000000E+00  0.00000000E+00
  0.00000000E+00  0.00000000E+00  0.00000000E+00
  0.00000000E+00  0.00000000E+00  0.00000000E+00
  0.00000000E+00  0.00000000E+00  0.00000000E+00
  0.00000000E+00  0.00000000E+00  0.00000000E+00
  0.00000000E+00  0.00000000E+00  0.00000000E+00
  0.00000000E+00  0.00000000E+00  0.00000000E+00
  0.00000000E+00  0.00000000E+00  0.00000000E+00
  0.00000000E+00  0.00000000E+00  0.00000000E+00
  0.00000000E+00  0.00000000E+00  0.00000000E+00
  0.00000000E+00  0.00000000E+00  0.00000000E+00
  0.00000000E+00  0.00000000E+00  0.00000000E+00
  0.00000000E+00  0.00000000E+00  0.00000000E+00
  0.00000000E+00  0.00000000E+00  0.00000000E+00
  0.00000000E+00  0.00000000E+00  0.00000000E+00
  0.00000000E+00  0.00000000E+00  0.00000000E+00
  0.00000000E+00  0.00000000E+00  0.00000000E+00
  0.00000000E+00  0.00000000E+00  0.00000000E+00
  0.00000000E+00  0.00000000E+00  0.00000000E+00
  0.00000000E+00  0.00000000E+00  0.00000000E+00
  0.00000000E+00  0.00000000E+00  0.00000000E+00
  0.00000000E+00  0.00000000E+00  0.00000000E+00
  0.00000000E+00  0.00000000E+00  0.00000000E+00
  0.00000000E+00  0.00000000E+00  0.00000000E+00
  0.00000000E+00  0.00000000E+00  0.00000000E+00
  0.00000000E+00  0.00000000E+00  0.00000000E+00
  0.00000000E+00  0.00000000E+00  0.00000000E+00
  0.00000000E+00  0.00000000E+00  0.00000000E+00
  0.00000000E+00  0.00000000E+00  0.00000000E+00
  0.00000000E+00  0.00000000E+00  0.00000000E+00
  0.00000000E+00  0.00000000E+00  0.00000000E+00
  0.00000000E+00  0.00000000E+00  0.00000000E+00
  0.00000000E+00  0.00000000E+00  0.00000000E+00
  0.00000000E+00  0.00000000E+00  0.00000000E+00
  0.00000000E+00  0.00000000E+00  0.00000000E+00
  0.00000000E+00  0.00000000E+00  0.00000000E+00
  0.00000000E+00  0.00000000E+00  0.00000000E+00
  0.00000000E+00  0.00000000E+00  0.00000000E+00
  0.00000000E+00  0.00000000E+00  0.00000000E+00
  0.00000000E+00  0.00000000E+00  0.00000000E+00
  0.00000000E+00  0.00000000E+00  0.00000000E+00
  0.00000000E+00  0.00000000E+00  0.00000000E+00
  0.00000000E+00  0.00000000E+00  0.00000000E+00
  0.00000000E+00  0.00000000E+00  0.00000000E+00
  0.00000000E+00  0.00000000E+00  0.00000000E+00
  0.00000000E+00  0.00000000E+00  0.00000000E+00
  0.00000000E+00  0.00000000E+00  0.00000000E+00
  0.00000000E+00  0.00000000E+00  0.00000000E+00
  0.00000000E+00  0.00000000E+00  0.00000000E+00
  0.00000000E+00  0.00000000E+00  0.00000000E+00
  0.00000000E+00  0.00000000E+00  0.00000000E+00
  0.00000000E+00  0.00000000E+00  0.00000000E+00
  0.00000000E+00  0.00000000E+00  0.00000000E+00
  0.00000000E+00  0.00000000E+00  0.00000000E+00
  0.00000000E+00  0.00000000E+00  0.00000000E+00
  0.00000000E+00  0.00000000E+00  0.00000000E+00
  0.00000000E+00  0.00000000E+00  0.00000000E+00
  0.00000000E+00  0.00000000E+00  0.00000000E+00
  0.00000000E+00  0.00000000E+00  0.00000000E+00
  0.00000000E+00  0.00000000E+00  0.00000000E+00
  0.00000000E+00  0.00000000E+00  0.00000000E+00
  0.00000000E+00  0.00000000E+00  0.00000000E+00
  0.00000000E+00  0.00000000E+00  0.00000000E+00
  0.00000000E+00  0.00000000E+00  0.00000000E+00
  0.00000000E+00  0.00000000E+00  0.00000000E+00
  0.00000000E+00  0.00000000E+00  0.00000000E+00
  0.00000000E+00  0.00000000E+00  0.00000000E+00
  0.00000000E+00  0.00000000E+00  0.00000000E+00
  0.00000000E+00  0.00000000E+00  0.00000000E+00
  0.00000000E+00  0.00000000E+00  0.00000000E+00
  0.00000000E+00  0.00000000E+00  0.00000000E+00
  0.00000000E+00  0.00000000E+00  0.00000000E+00
  0.00000000E+00  0.00000000E+00  0.00000000E+00
  0.00000000E+00  0.00000000E+00  0.00000000E+00
  0.00000000E+00  0.00000000E+00  0.00000000E+00
  0.00000000E+00  0.00000000E+00  0.00000000E+00
  0.00000000E+00  0.00000000E+00  0.00000000E+00
  0.00000000E+00  0.00000000E+00  0.00000000E+00
  0.00000000E+00  0.00000000E+00  0.00000000E+00
  0.00000000E+00  0.00000000E+00  0.00000000E+00
  0.00000000E+00  0.00000000E+00  0.00000000E+00
  0.00000000E+00  0.00000000E+00  0.00000000E+00
  0.00000000E+00  0.00000000E+00  0.00000000E+00
  0.00000000E+00  0.00000000E+00  0.00000000E+00
  0.00000000E+00  0.00000000E+00  0.00000000E+00
  0.00000000E+00  0.00000000E+00  0.00000000E+00
  0.00000000E+00  0.00000000E+00  0.00000000E+00
  0.00000000E+00  0.00000000E+00  0.00000000E+00
  0.00000000E+00  0.00000000E+00  0.00000000E+00
  0.00000000E+00  0.00000000E+00  0.00000000E+00
  0.00000000E+00  0.00000000E+00  0.00000000E+00
  0.00000000E+00  0.00000000E+00  0.00000000E+00
  0.00000000E+00  0.00000000E+00  0.00000000E+00
  0.00000000E+00  0.00000000E+00  0.00000000E+00
  0.00000000E+00  0.00000000E+00  0.00000000E+00
  0.00000000E+00  0.00000000E+00  0.00000000E+00
  0.00000000E+00  0.00000000E+00  0.00000000E+00
  0.00000000E+00  0.00000000E+00  0.00000000E+00
  0.00000000E+00  0.00000000E+00  0.00000000E+00
  0.00000000E+00  0.00000000E+00  0.00000000E+00
  0.00000000E+00  0.00000000E+00  0.00000000E+00
  0.00000000E+00  0.00000000E+00  0.00000000E+00
  0.00000000E+00  0.00000000E+00  0.00000000E+00
  0.00000000E+00  0.00000000E+00  0.00000000E+00
  0.00000000E+00  0.00000000E+00  0.00000000E+00
  0.00000000E+00  0.00000000E+00  0.00000000E+00
  0.00000000E+00  0.00000000E+00  0.00000000E+00
  0.00000000E+00  0.00000000E+00  0.00000000E+00
  0.00000000E+00  0.00000000E+00  0.00000000E+00
  0.00000000E+00  0.00000000E+00  0.00000000E+00
  0.00000000E+00  0.00000000E+00  0.00000000E+00
  0.00000000E+00  0.00000000E+00  0.00000000E+00
  0.00000000E+00  0.00000000E+00  0.00000000E+00
  0.00000000E+00  0.00000000E+00  0.00000000E+00
  0.00000000E+00  0.00000000E+00  0.00000000E+00
  0.00000000E+00  0.00000000E+00  0.00000000E+00
  0.00000000E+00  0.00000000E+00  0.00000000E+00
  0.00000000E+00  0.00000000E+00  0.00000000E+00
  0.00000000E+00  0.00000000E+00  0.00000000E+00
  0.00000000E+00  0.00000000E+00  0.00000000E+00
  0.00000000E+00  0.00000000E+00  0.00000000E+00
  0.00000000E+00  0.00000000E+00  0.00000000E+00
  0.00000000E+00  0.00000000E+00  0.00000000E+00
  0.00000000E+00  0.00000000E+00  0.00000000E+00
  0.00000000E+00  0.00000000E+00  0.00000000E+00
  0.00000000E+00  0.00000000E+00  0.00000000E+00
  0.00000000E+00  0.00000000E+00  0.00000000E+00
  0.00000000E+00  0.00000000E+00  0.00000000E+00
  0.00000000E+00  0.00000000E+00  0.00000000E+00
  0.00000000E+00  0.00000000E+00  0.00000000E+00
  0.00000000E+00  0.00000000E+00  0.00000000E+00
  0.00000000E+00  0.00000000E+00  0.00000000E+00
