New POSCAR file                         
   1.00000000000000     
    16.0260819999999988    0.0000000000000000    0.0000000000000000
     0.0000000000000000   16.1000000000000014    0.0000000000000000
     0.0000000000000000    0.0000000000000000   16.4253670000000014
   Li   P    S    Cl
    96    16    80    16
Direct
  0.7264470505018039  0.8342049689440998  0.1783935786640285
  0.6069980173569576  0.6789751552795025  0.9843250382168023
  0.6580335730217755  0.6514782608695668  0.1812592680577580
  0.7895441942703130  0.8963664596273304  0.0226404682464647
  0.5864171916754231  0.7856708074534140  0.2685382920211126
  0.9078950176343810  0.7438322981366454  0.8841689808209452
  0.2331018897819206  0.0193873291925470  0.0391501754572658
  0.1967318025703335  0.8551055900621094  0.2728779210838965
  0.0792676588076873  0.0321161490683224  0.3535068653260538
  0.2326825733201687  0.6995714285714314  0.0781011468419521
  0.1077842981210253  0.6752981366459636  0.8957181900410518
  0.3082762212248724  0.8352173913043472  0.4400072156683024
  0.3254263893071325  0.4972459627329187  0.6318458516025842
  0.5624306677078010  0.7893913043478236  0.5376245170047014
  0.6884402563271550  0.8704161490683262  0.7697484019687337
  0.3750704632610748  0.6203385093167668  0.4355184270768504
  0.7146288157018006  0.5373217391304337  0.7287325756556911
  0.1602425346382219  0.7520993788819865  0.6141597932027949
  0.0120634600521825  0.9298633540372663  0.8620264009930523
  0.9304519969384870  0.4930968944099376  0.9785839183989040
  0.1672186626775058  0.4446509316770175  0.6835889876920263
  0.5147646193249216  0.8943105590062146  0.8964670317564298
  0.9952089350347748  0.6320434782608686  0.7383579313631188
  0.8589747637632215  0.5318360248447220  0.8594937330776204
  0.4010506123705113  0.5021509316770221  0.8581908702557470
  0.0632132045748932  0.5073447204968957  0.8434392972771931
  0.2769167161381034  0.6120776397515542  0.7975651320302291
  0.4288690148970886  0.7091490683229793  0.9108776686694426
  0.0492989490506801  0.3010055900621111  0.6976099833872809
  0.5140875979543864  0.6210428571428537  0.7301145843499270
  0.2513059648640237  0.2459490683229788  0.0265157545642651
  0.3863058980978664  0.1549236024844731  0.1442804900493257
  0.4684700852023624  0.0714714285714280  0.0284697443898807
  0.4428437343575311  0.3218844720496890  0.0681403343986133
  0.6248002474965517  0.3758372670807475  0.1934179004950067
  0.1202914099653327  0.1918540372670776  0.1269865081249009
  0.8239755668291195  0.1130645962732899  0.4950093352556451
  0.7900808195041051  0.2911490683229800  0.6425853376670361
  0.5921359943122724  0.0318540372670810  0.8986587636063135
  0.5758200912737124  0.2788018633540403  0.6380496703665770
  0.8533526784650149  0.1790248447204945  0.7949837589625872
  0.7400997948219654  0.3107503105590084  0.8935142819031086
  0.4708643073210297  0.2385211180124216  0.3732166228005767
  0.2322270658542749  0.9952173913043509  0.7134574222907801
  0.3333821703894913  0.0714689440993794  0.3236299073256603
  0.9740122383000411  0.1900099378881990  0.6270788348290779
  0.4020577206581137  0.0736217391304379  0.5151178661639619
  0.9432498847815722  0.3272987577639768  0.3870476684021753
  0.3735023944093143  0.4276788819875748  0.3836224785723203
  0.0067695897225519  0.2334714285714270  0.2590566165127370
  0.1938171787714538  0.2475689440993776  0.3078646583665403
  0.9553551516833636  0.3904832298136611  0.1889254590171419
  0.1050063265619130  0.4687881987577640  0.2651137110056681
  0.3012776298037139  0.4495440993788833  0.2283321888637246
  0.7857628583205809  0.6110782608695615  0.2889774091501280
  0.1038307429102119  0.5669453416149040  0.1059897170029771
  0.7878906397708434  0.5148919254658395  0.1113649393648259
  0.1121191068409644  0.7129503105590089  0.2786032117273223
  0.9466069124069136  0.6756024844720514  0.0419319702262939
  0.1129171808805154  0.4659459627329170  0.4350691220476222
  0.4221905266677126  0.0086261490683199  0.7745702120384905
  0.3464315233130577  0.9256956521739141  0.9203142919120140
  0.3637027440643337  0.8954534161490670  0.6409719794997599
  0.0817673340246259  0.8171739130434759  0.7349546588517626
  0.2104831361776363  0.8495403726708091  0.8628239478606474
  0.3079536221017705  0.7707204968944126  0.7524763373628147
  0.0498157940287598  0.8120993788819888  0.4686318424422424
  0.8713920220800091  0.9405341614906817  0.4924736232682037
  0.9265895432208566  0.7673602484472042  0.2763859096725199
  0.9092365807188543  0.7285093167701859  0.4886752302094663
  0.7787992099379011  0.8016397515527913  0.3921483154683827
  0.7507262224166809  0.1318068322981389  0.6786697673178352
  0.0102547210228892  0.3369732919254673  0.8724797442882064
  0.3699856271794957  0.1520913043478274  0.8711220881700825
  0.1211156912837481  0.1526291925465841  0.8294000371498527
  0.2327948902295631  0.3327521739130432  0.7997325113040077
  0.1116455038729995  0.8532111801242266  0.0621550800052120
  0.2145209290704955  0.4614751552795013  0.9349014850018236
  0.5827394368754639  0.4172602484472065  0.4411012551500377
  0.5029507524047361  0.5668248447205002  0.1072797947223947
  0.7161950126050769  0.2512763975155252  0.2897646061728807
  0.5293096590919717  0.6040130434782611  0.3029509173219722
  0.4120108707792696  0.7057826086956496  0.2494933598743927
  0.7606475494135125  0.4511155279503072  0.3738382223057783
  0.8014373070099126  0.0261796894409940  0.2866103387522472
  0.5199667641785410  0.8620124223602517  0.1219771832191014
  0.6540276032532475  0.7066770186335418  0.3999947154909833
  0.6681795338374030  0.9319316770186319  0.3319450944383746
  0.4835168071647189  0.0293560869565184  0.2474696607996663
  0.5051228366359268  0.9369068322981349  0.3722230376952922
  0.3744358727229766  0.2326149068322962  0.7226322553401729
  0.8415781224631189  0.5101732919254687  0.5605902139051153
  0.5456268100961950  0.1090409937888168  0.7339379387991727
  0.2209298567173192  0.2038310559006220  0.6247288112344762
  0.5804344443014813  0.1011577639751522  0.4646836810404267
  0.6487986271379356  0.1704875776397543  0.8367666914230867
  0.6943119347573514  0.9250372670807465  0.5809051328959640
  0.6303287353702558  0.6875403726708100  0.6044358095621263
  0.3547960131490626  0.2899894409937858  0.2200297868534662
  0.2021080386335257  0.9765652173913040  0.5242232943714455
  0.9536579183857938  0.5268732919254688  0.4127816443918704
  0.8855065136943665  0.4310068322981380  0.7298406178686889
  0.5238579211063552  0.3400012422360277  0.5798244873310878
  0.1266448031402803  0.6065987577639760  0.5257014957413162
  0.5913840950021338  0.1097155279503070  0.2498355135687405
  0.7835913980722182  0.0092812422360282  0.8539717864447098
  0.9224026184316259  0.8583540372670839  0.1269244090558246
  0.3468720551910351  0.5370472049689425  0.0536185888570984
  0.8406171889049361  0.2560018633540366  0.1882082756507089
  0.6859755241486951  0.4815105590062103  0.9621398413807114
  0.2796347853455359  0.6619068322981363  0.2668208265909655
  0.4964993939254754  0.4138732919254693  0.8584039552967084
  0.6970824185225055  0.0524541614906866  0.5626370479271472
  0.6577527807482824  0.8699875776397548  0.4720844289202191
  0.5954250078091476  0.8884906832298114  0.6572212359090699
  0.7894505968458176  0.8625838509316779  0.6246070483539299
  0.6780883811776306  0.6712732919254663  0.7105959945978668
  0.7256857914492159  0.7385962732919253  0.2732876531769435
  0.4874229396804566  0.9569503105590087  0.6488804785914368
  0.5012185760686876  0.6911304347826075  0.4343415888363396
  0.4396146232123357  0.4002409937888203  0.1937971918679224
  0.3331257134463712  0.2896521739130407  0.3429567205408546
  0.1159266500695537  0.1322937888198723  0.2623996163982198
  0.2274835483806967  0.3390795031055873  0.1781683173350075
  0.2456083776433928  0.9747701863354052  0.3983831837669101
  0.2802862234200489  0.0452532919254693  0.5715994047499819
  0.2522225956412782  0.8450869565217403  0.5788120289793213
  0.0918995672179861  0.9418757763975165  0.5111155202803062
  0.9008752107969968  0.4575776397515554  0.4308975257600025
  0.6508078518505016  0.5185422360248424  0.3196379112868541
  0.0731663546960490  0.6002161490683235  0.3994900083511084
  0.6773832805797468  0.3029490683229810  0.4306661762869624
  0.8682908274149597  0.3987677018633562  0.8585561588973931
  0.0396957908988611  0.4309993788819853  0.7541018718181434
  0.8600729735439998  0.5625987577639719  0.7194055390056135
  0.6952915878004333  0.4767484472049688  0.5448036564418928
  0.5530871488115423  0.5870192546583866  0.5945590135063625
  0.4759884543208983  0.4242925465838496  0.5330973731058819
  0.4238390893045505  0.2472540372670835  0.5957516809213459
  0.5928903895537303  0.2448788819875745  0.4783393880940352
  0.0256377073323364  0.6841428571428594  0.5768394703144253
  0.3446132373464721  0.6363602484472040  0.5815730022957766
  0.0658389243234865  0.5060608695652178  0.5692554692994065
  0.1736924845386412  0.7096583850931708  0.7691822045741787
  0.4675228792664328  0.0897981366459604  0.3823001336895544
  0.6908862690207158  0.0922931677018610  0.1442342201547149
  0.6919907186297962  0.0862509316770215  0.3632929480358058
  0.5757863962008898  0.2504732919254664  0.2691970292048893
  0.7494532974435018  0.0964540372670797  0.9415680027119038
  0.6761789937178690  0.0078286335403703  0.7778760742454054
  0.8023545617699952  0.8846273291925471  0.8800351310262968
  0.8727335851644824  0.0400451552795005  0.7718001065059923
  0.8431755185078913  0.9419254658385086  0.1638368262943501
  0.9242433677801003  0.5747993788819841  0.2196553659957772
  0.9933744255146095  0.9004285714285700  0.0329606638317443
  0.8431755185078913  0.7589689440993794  0.0765437995997260
  0.3558873591187179  0.5716440993788794  0.2880294851250511
  0.4424918080414173  0.5692018633540386  0.9812870543470993
  0.2330869141939971  0.6032378881987555  0.9744744211803607
  0.3256653747310168  0.4065124223602510  0.0099192304196336
  0.8520859933201379  0.1949024844720526  0.2950947762689253
  0.7288868233670556  0.2082198757764004  0.1142014056672238
  0.9497580256983582  0.2571130434782631  0.1192442153651712
  0.8031906987621795  0.3740813664596274  0.2223146673069749
  0.6292679645592756  0.5115136645962721  0.1000738674514849
  0.5945951106452583  0.3846894409937889  0.9470412441925973
  0.7946920526177266  0.4112055900621101  0.0055909070403146
  0.7231960999575548  0.5861888198757796  0.9187861677611195
  0.1739595491898740  0.5912372670807429  0.2163854238386236
  0.2805358165520460  0.7683229813664596  0.1922982908083597
  0.4542595002321832  0.7860372670807436  0.3745176591792472
  0.2436684150249562  0.7140683229813689  0.3643127121604053
  0.5007880279159949  0.2796540372670790  0.7797999277580843
  0.7082953899774154  0.4265037267080771  0.6397056455420440
  0.5127254434365156  0.1029496894409903  0.8652044121753875
  0.5633260830688371  0.4601273291925452  0.7627835652013104
  0.5354852171603781  0.6958074534161511  0.1677521117184142
  0.2286497722899483  0.8884347826086980  0.9943035062778165
  0.4285214564607855  0.7342422360248477  0.6480403147156437
  0.9761774587201018  0.6065559006211174  0.9026404098002772
  0.2504779396486327  0.4722863354037301  0.8001525932419042
  0.3923142287678303  0.1882093167701839  0.0112170400819664
  0.7366554096004236  0.2457807453416123  0.7660407222560082
  0.2504068056060120  0.1799776397515558  0.7667043299550045
  0.0481699145180983  0.3610024844720527  0.3383053785038683
  0.9789916212833560  0.5158937888198736  0.1172996621628002
  0.3340036572881644  0.8994658385093146  0.7693222318868109
  0.9216850381771451  0.8417453416149101  0.3997554514307069
  0.0040384667943201  0.2085018633540372  0.7911238756491699
  0.5250035535822164  0.4451267080745325  0.2596550810706404
  0.5690679730703962  0.9188757763975133  0.2469302512388296
  0.4693249416794458  0.1251298136645929  0.6226284015450005
  0.5473015800118830  0.9492422360248440  0.0040118860053511
  0.3868181880012855  0.0445126086956549  0.1655104570875068
  0.2488412326855709  0.4365919254658408  0.4326576081983404
  0.5492315589050420  0.7588509316770171  0.8887290006975164
  0.3861311829054657  0.6475403726708038  0.8030749023750872
  0.1610287530040111  0.1600049689441008  0.9939199532040917
  0.8609964681323845  0.2082670807453439  0.5786360816169278
  0.0822103618339156  0.2475285714285747  0.5829513581035997
  0.0849327989211588  0.7152546583850921  0.0567634805359276
  0.0681414209661497  0.8444347826086940  0.2723092884317282
  0.0951667413158148  0.9403664596273273  0.7843903883547938
  0.9589867317538960  0.7967577639751582  0.7646830661378843
  0.0628506705506666  0.4319683229813691  0.9564291622829515
  0.7837411539514179  0.6535776397515534  0.4861474328092612
  0.9050808550711267  0.0091489440993797  0.3872163099917358
  0.2587538239227811  0.3870739130434799  0.6240286746713153
 
  0.00000000E+00  0.00000000E+00  0.00000000E+00
  0.00000000E+00  0.00000000E+00  0.00000000E+00
  0.00000000E+00  0.00000000E+00  0.00000000E+00
  0.00000000E+00  0.00000000E+00  0.00000000E+00
  0.00000000E+00  0.00000000E+00  0.00000000E+00
  0.00000000E+00  0.00000000E+00  0.00000000E+00
  0.00000000E+00  0.00000000E+00  0.00000000E+00
  0.00000000E+00  0.00000000E+00  0.00000000E+00
  0.00000000E+00  0.00000000E+00  0.00000000E+00
  0.00000000E+00  0.00000000E+00  0.00000000E+00
  0.00000000E+00  0.00000000E+00  0.00000000E+00
  0.00000000E+00  0.00000000E+00  0.00000000E+00
  0.00000000E+00  0.00000000E+00  0.00000000E+00
  0.00000000E+00  0.00000000E+00  0.00000000E+00
  0.00000000E+00  0.00000000E+00  0.00000000E+00
  0.00000000E+00  0.00000000E+00  0.00000000E+00
  0.00000000E+00  0.00000000E+00  0.00000000E+00
  0.00000000E+00  0.00000000E+00  0.00000000E+00
  0.00000000E+00  0.00000000E+00  0.00000000E+00
  0.00000000E+00  0.00000000E+00  0.00000000E+00
  0.00000000E+00  0.00000000E+00  0.00000000E+00
  0.00000000E+00  0.00000000E+00  0.00000000E+00
  0.00000000E+00  0.00000000E+00  0.00000000E+00
  0.00000000E+00  0.00000000E+00  0.00000000E+00
  0.00000000E+00  0.00000000E+00  0.00000000E+00
  0.00000000E+00  0.00000000E+00  0.00000000E+00
  0.00000000E+00  0.00000000E+00  0.00000000E+00
  0.00000000E+00  0.00000000E+00  0.00000000E+00
  0.00000000E+00  0.00000000E+00  0.00000000E+00
  0.00000000E+00  0.00000000E+00  0.00000000E+00
  0.00000000E+00  0.00000000E+00  0.00000000E+00
  0.00000000E+00  0.00000000E+00  0.00000000E+00
  0.00000000E+00  0.00000000E+00  0.00000000E+00
  0.00000000E+00  0.00000000E+00  0.00000000E+00
  0.00000000E+00  0.00000000E+00  0.00000000E+00
  0.00000000E+00  0.00000000E+00  0.00000000E+00
  0.00000000E+00  0.00000000E+00  0.00000000E+00
  0.00000000E+00  0.00000000E+00  0.00000000E+00
  0.00000000E+00  0.00000000E+00  0.00000000E+00
  0.00000000E+00  0.00000000E+00  0.00000000E+00
  0.00000000E+00  0.00000000E+00  0.00000000E+00
  0.00000000E+00  0.00000000E+00  0.00000000E+00
  0.00000000E+00  0.00000000E+00  0.00000000E+00
  0.00000000E+00  0.00000000E+00  0.00000000E+00
  0.00000000E+00  0.00000000E+00  0.00000000E+00
  0.00000000E+00  0.00000000E+00  0.00000000E+00
  0.00000000E+00  0.00000000E+00  0.00000000E+00
  0.00000000E+00  0.00000000E+00  0.00000000E+00
  0.00000000E+00  0.00000000E+00  0.00000000E+00
  0.00000000E+00  0.00000000E+00  0.00000000E+00
  0.00000000E+00  0.00000000E+00  0.00000000E+00
  0.00000000E+00  0.00000000E+00  0.00000000E+00
  0.00000000E+00  0.00000000E+00  0.00000000E+00
  0.00000000E+00  0.00000000E+00  0.00000000E+00
  0.00000000E+00  0.00000000E+00  0.00000000E+00
  0.00000000E+00  0.00000000E+00  0.00000000E+00
  0.00000000E+00  0.00000000E+00  0.00000000E+00
  0.00000000E+00  0.00000000E+00  0.00000000E+00
  0.00000000E+00  0.00000000E+00  0.00000000E+00
  0.00000000E+00  0.00000000E+00  0.00000000E+00
  0.00000000E+00  0.00000000E+00  0.00000000E+00
  0.00000000E+00  0.00000000E+00  0.00000000E+00
  0.00000000E+00  0.00000000E+00  0.00000000E+00
  0.00000000E+00  0.00000000E+00  0.00000000E+00
  0.00000000E+00  0.00000000E+00  0.00000000E+00
  0.00000000E+00  0.00000000E+00  0.00000000E+00
  0.00000000E+00  0.00000000E+00  0.00000000E+00
  0.00000000E+00  0.00000000E+00  0.00000000E+00
  0.00000000E+00  0.00000000E+00  0.00000000E+00
  0.00000000E+00  0.00000000E+00  0.00000000E+00
  0.00000000E+00  0.00000000E+00  0.00000000E+00
  0.00000000E+00  0.00000000E+00  0.00000000E+00
  0.00000000E+00  0.00000000E+00  0.00000000E+00
  0.00000000E+00  0.00000000E+00  0.00000000E+00
  0.00000000E+00  0.00000000E+00  0.00000000E+00
  0.00000000E+00  0.00000000E+00  0.00000000E+00
  0.00000000E+00  0.00000000E+00  0.00000000E+00
  0.00000000E+00  0.00000000E+00  0.00000000E+00
  0.00000000E+00  0.00000000E+00  0.00000000E+00
  0.00000000E+00  0.00000000E+00  0.00000000E+00
  0.00000000E+00  0.00000000E+00  0.00000000E+00
  0.00000000E+00  0.00000000E+00  0.00000000E+00
  0.00000000E+00  0.00000000E+00  0.00000000E+00
  0.00000000E+00  0.00000000E+00  0.00000000E+00
  0.00000000E+00  0.00000000E+00  0.00000000E+00
  0.00000000E+00  0.00000000E+00  0.00000000E+00
  0.00000000E+00  0.00000000E+00  0.00000000E+00
  0.00000000E+00  0.00000000E+00  0.00000000E+00
  0.00000000E+00  0.00000000E+00  0.00000000E+00
  0.00000000E+00  0.00000000E+00  0.00000000E+00
  0.00000000E+00  0.00000000E+00  0.00000000E+00
  0.00000000E+00  0.00000000E+00  0.00000000E+00
  0.00000000E+00  0.00000000E+00  0.00000000E+00
  0.00000000E+00  0.00000000E+00  0.00000000E+00
  0.00000000E+00  0.00000000E+00  0.00000000E+00
  0.00000000E+00  0.00000000E+00  0.00000000E+00
  0.00000000E+00  0.00000000E+00  0.00000000E+00
  0.00000000E+00  0.00000000E+00  0.00000000E+00
  0.00000000E+00  0.00000000E+00  0.00000000E+00
  0.00000000E+00  0.00000000E+00  0.00000000E+00
  0.00000000E+00  0.00000000E+00  0.00000000E+00
  0.00000000E+00  0.00000000E+00  0.00000000E+00
  0.00000000E+00  0.00000000E+00  0.00000000E+00
  0.00000000E+00  0.00000000E+00  0.00000000E+00
  0.00000000E+00  0.00000000E+00  0.00000000E+00
  0.00000000E+00  0.00000000E+00  0.00000000E+00
  0.00000000E+00  0.00000000E+00  0.00000000E+00
  0.00000000E+00  0.00000000E+00  0.00000000E+00
  0.00000000E+00  0.00000000E+00  0.00000000E+00
  0.00000000E+00  0.00000000E+00  0.00000000E+00
  0.00000000E+00  0.00000000E+00  0.00000000E+00
  0.00000000E+00  0.00000000E+00  0.00000000E+00
  0.00000000E+00  0.00000000E+00  0.00000000E+00
  0.00000000E+00  0.00000000E+00  0.00000000E+00
  0.00000000E+00  0.00000000E+00  0.00000000E+00
  0.00000000E+00  0.00000000E+00  0.00000000E+00
  0.00000000E+00  0.00000000E+00  0.00000000E+00
  0.00000000E+00  0.00000000E+00  0.00000000E+00
  0.00000000E+00  0.00000000E+00  0.00000000E+00
  0.00000000E+00  0.00000000E+00  0.00000000E+00
  0.00000000E+00  0.00000000E+00  0.00000000E+00
  0.00000000E+00  0.00000000E+00  0.00000000E+00
  0.00000000E+00  0.00000000E+00  0.00000000E+00
  0.00000000E+00  0.00000000E+00  0.00000000E+00
  0.00000000E+00  0.00000000E+00  0.00000000E+00
  0.00000000E+00  0.00000000E+00  0.00000000E+00
  0.00000000E+00  0.00000000E+00  0.00000000E+00
  0.00000000E+00  0.00000000E+00  0.00000000E+00
  0.00000000E+00  0.00000000E+00  0.00000000E+00
  0.00000000E+00  0.00000000E+00  0.00000000E+00
  0.00000000E+00  0.00000000E+00  0.00000000E+00
  0.00000000E+00  0.00000000E+00  0.00000000E+00
  0.00000000E+00  0.00000000E+00  0.00000000E+00
  0.00000000E+00  0.00000000E+00  0.00000000E+00
  0.00000000E+00  0.00000000E+00  0.00000000E+00
  0.00000000E+00  0.00000000E+00  0.00000000E+00
  0.00000000E+00  0.00000000E+00  0.00000000E+00
  0.00000000E+00  0.00000000E+00  0.00000000E+00
  0.00000000E+00  0.00000000E+00  0.00000000E+00
  0.00000000E+00  0.00000000E+00  0.00000000E+00
  0.00000000E+00  0.00000000E+00  0.00000000E+00
  0.00000000E+00  0.00000000E+00  0.00000000E+00
  0.00000000E+00  0.00000000E+00  0.00000000E+00
  0.00000000E+00  0.00000000E+00  0.00000000E+00
  0.00000000E+00  0.00000000E+00  0.00000000E+00
  0.00000000E+00  0.00000000E+00  0.00000000E+00
  0.00000000E+00  0.00000000E+00  0.00000000E+00
  0.00000000E+00  0.00000000E+00  0.00000000E+00
  0.00000000E+00  0.00000000E+00  0.00000000E+00
  0.00000000E+00  0.00000000E+00  0.00000000E+00
  0.00000000E+00  0.00000000E+00  0.00000000E+00
  0.00000000E+00  0.00000000E+00  0.00000000E+00
  0.00000000E+00  0.00000000E+00  0.00000000E+00
  0.00000000E+00  0.00000000E+00  0.00000000E+00
  0.00000000E+00  0.00000000E+00  0.00000000E+00
  0.00000000E+00  0.00000000E+00  0.00000000E+00
  0.00000000E+00  0.00000000E+00  0.00000000E+00
  0.00000000E+00  0.00000000E+00  0.00000000E+00
  0.00000000E+00  0.00000000E+00  0.00000000E+00
  0.00000000E+00  0.00000000E+00  0.00000000E+00
  0.00000000E+00  0.00000000E+00  0.00000000E+00
  0.00000000E+00  0.00000000E+00  0.00000000E+00
  0.00000000E+00  0.00000000E+00  0.00000000E+00
  0.00000000E+00  0.00000000E+00  0.00000000E+00
  0.00000000E+00  0.00000000E+00  0.00000000E+00
  0.00000000E+00  0.00000000E+00  0.00000000E+00
  0.00000000E+00  0.00000000E+00  0.00000000E+00
  0.00000000E+00  0.00000000E+00  0.00000000E+00
  0.00000000E+00  0.00000000E+00  0.00000000E+00
  0.00000000E+00  0.00000000E+00  0.00000000E+00
  0.00000000E+00  0.00000000E+00  0.00000000E+00
  0.00000000E+00  0.00000000E+00  0.00000000E+00
  0.00000000E+00  0.00000000E+00  0.00000000E+00
  0.00000000E+00  0.00000000E+00  0.00000000E+00
  0.00000000E+00  0.00000000E+00  0.00000000E+00
  0.00000000E+00  0.00000000E+00  0.00000000E+00
  0.00000000E+00  0.00000000E+00  0.00000000E+00
  0.00000000E+00  0.00000000E+00  0.00000000E+00
  0.00000000E+00  0.00000000E+00  0.00000000E+00
  0.00000000E+00  0.00000000E+00  0.00000000E+00
  0.00000000E+00  0.00000000E+00  0.00000000E+00
  0.00000000E+00  0.00000000E+00  0.00000000E+00
  0.00000000E+00  0.00000000E+00  0.00000000E+00
  0.00000000E+00  0.00000000E+00  0.00000000E+00
  0.00000000E+00  0.00000000E+00  0.00000000E+00
  0.00000000E+00  0.00000000E+00  0.00000000E+00
  0.00000000E+00  0.00000000E+00  0.00000000E+00
  0.00000000E+00  0.00000000E+00  0.00000000E+00
  0.00000000E+00  0.00000000E+00  0.00000000E+00
  0.00000000E+00  0.00000000E+00  0.00000000E+00
  0.00000000E+00  0.00000000E+00  0.00000000E+00
  0.00000000E+00  0.00000000E+00  0.00000000E+00
  0.00000000E+00  0.00000000E+00  0.00000000E+00
  0.00000000E+00  0.00000000E+00  0.00000000E+00
  0.00000000E+00  0.00000000E+00  0.00000000E+00
  0.00000000E+00  0.00000000E+00  0.00000000E+00
  0.00000000E+00  0.00000000E+00  0.00000000E+00
  0.00000000E+00  0.00000000E+00  0.00000000E+00
  0.00000000E+00  0.00000000E+00  0.00000000E+00
  0.00000000E+00  0.00000000E+00  0.00000000E+00
  0.00000000E+00  0.00000000E+00  0.00000000E+00
  0.00000000E+00  0.00000000E+00  0.00000000E+00
  0.00000000E+00  0.00000000E+00  0.00000000E+00
  0.00000000E+00  0.00000000E+00  0.00000000E+00
  0.00000000E+00  0.00000000E+00  0.00000000E+00
  0.00000000E+00  0.00000000E+00  0.00000000E+00
  0.00000000E+00  0.00000000E+00  0.00000000E+00
  0.00000000E+00  0.00000000E+00  0.00000000E+00
