New POSCAR file                         
   1.00000000000000     
    10.2500000000000000    0.0000000000000000    0.0000000000000000
     0.0000000000000000   10.2500000000000000    0.0000000000000000
     0.0000000000000000    0.0000000000000000   12.3499999999999996
   Li   P    S    Cl
    30     5    25     5
Direct
  0.6224087804878025  0.9042273170731718  0.9919433198380574
  0.7313960975609746  0.5691756097561012  0.6137433198380577
  0.2342936585365862  0.1728858536585349  0.0343155465587017
  0.1515063414634170  0.6846058536585389  0.1891408906882575
  0.2524195121951252  0.1820497560975625  0.3194485829959532
  0.2047834146341430  0.0603494634146315  0.6546000000000021
  0.7571180487804909  0.5640868292682910  0.2206113360323911
  0.5087697560975641  0.0738616585365861  0.3093894736842131
  0.9835219512195152  0.9294507317073197  0.5936356275303609
  0.9244526829268267  0.3630419512195147  0.2359327935222666
  0.4365853658536594  0.9823317073170728  0.5355497975708516
  0.8862263414634128  0.5871717073170757  0.0268382995951413
  0.0303122926829289  0.3579580487804890  0.7317246963562738
  0.3110263414634176  0.5227726829268278  0.5892234817813744
  0.5938448780487775  0.2475395121951252  0.9992388663967589
  0.8360946341463418  0.2071921951219480  0.8253198380566786
  0.6214595121951234  0.5328370731707324  0.9833279352226754
  0.4614321951219509  0.4017082926829261  0.4409611336032384
  0.4793502439024380  0.6572829268292679  0.1521732793522261
  0.2268243902439053  0.7393551219512204  0.8678866396761151
  0.6684546341463431  0.2676478048780453  0.2225668016194362
  0.9636799999999965  0.6936887804878040  0.7257757085020273
  0.0107346341463384  0.3557463414634157  0.4553036437246973
  0.9116360975609723  0.2161443902439046  0.0373882591093135
  0.6999307317073189  0.1175960975609769  0.4479514170040488
  0.5558243902438988  0.6405980487804896  0.7764477732793509
  0.6433473170731716  0.8722302439024361  0.2427125506072869
  0.6760731707317049  0.0524414634146311  0.7708623481781345
  0.6031912195121976  0.2586634146341495  0.6266655870445348
  0.9285317073170702  0.8952595121951248  0.0123129554655890
  0.3061795121951221  0.6134497560975589  0.3391878542510156
  0.2750439024390232  0.4778556097560980  0.8868663967611354
  0.0917988292682921  0.4225404878048806  0.9858056680161909
  0.1939336585365865  0.7080897560975643  0.4831546558704432
  0.9731814634146332  0.6239863414634144  0.4607295546558703
  0.3735209756097575  0.1091736585365837  0.8032631578947402
  0.3824995121951247  0.8937063414634139  0.2278663967611365
  0.4492487804878067  0.9235775609756089  0.8232550607287479
  0.2010497560975608  0.9118536585365860  0.4979668016194339
  0.8350019512195104  0.7430068292682961  0.5415125506072869
  0.0311634146341433  0.1876029268292712  0.5835303643724714
  0.5120946341463437  0.6130292682926850  0.3356404858299626
  0.3937492682926802  0.6291463414634180  0.9566963562753017
  0.1979600000000019  0.3749843902439025  0.1378793522267188
  0.1818458536585368  0.5613560975609744  0.7414380566801597
  0.7555404878048790  0.3741297560975596  0.0719001619433186
  0.7706946341463379  0.5567268292682925  0.8252955465587064
  0.0709081951219517  0.2517248780487833  0.8959190283400815
  0.9553619512195155  0.6384302439024410  0.2892550607287419
  0.0645368780487772  0.2213307317073188  0.1808234817813741
  0.7797199999999975  0.0639582439024409  0.9673117408906862
  0.8361180487804845  0.1079960975609779  0.5988574898785402
  0.4645248780487776  0.1958536585365849  0.4642040485829995
  0.7060487804878051  0.7150975609756074  0.0885829959514197
  0.7909960975609778  0.3907873170731690  0.7213060728744907
  0.4364702439024413  0.1807190243902426  0.1508842105263142
  0.5344517073170749  0.2401424390243889  0.8129473684210495
  0.5727746341463416  0.8582800000000006  0.7022842105263152
  0.4145804878048764  0.9956390243902433  0.0756625101214610
  0.2294926829268320  0.4420399999999987  0.4125765182186214
  0.5242136585365884  0.4834458536585373  0.6054809716599223
  0.7995824390243911  0.3227785365853677  0.3758404858299613
  0.1052117073170749  0.8893717073170748  0.7495700404858283
  0.7537004878048776  0.0444219512195119  0.2915311740890658
  0.0834546341463422  0.7359404878048750  0.0230962753036437
 
  0.00000000E+00  0.00000000E+00  0.00000000E+00
  0.00000000E+00  0.00000000E+00  0.00000000E+00
  0.00000000E+00  0.00000000E+00  0.00000000E+00
  0.00000000E+00  0.00000000E+00  0.00000000E+00
  0.00000000E+00  0.00000000E+00  0.00000000E+00
  0.00000000E+00  0.00000000E+00  0.00000000E+00
  0.00000000E+00  0.00000000E+00  0.00000000E+00
  0.00000000E+00  0.00000000E+00  0.00000000E+00
  0.00000000E+00  0.00000000E+00  0.00000000E+00
  0.00000000E+00  0.00000000E+00  0.00000000E+00
  0.00000000E+00  0.00000000E+00  0.00000000E+00
  0.00000000E+00  0.00000000E+00  0.00000000E+00
  0.00000000E+00  0.00000000E+00  0.00000000E+00
  0.00000000E+00  0.00000000E+00  0.00000000E+00
  0.00000000E+00  0.00000000E+00  0.00000000E+00
  0.00000000E+00  0.00000000E+00  0.00000000E+00
  0.00000000E+00  0.00000000E+00  0.00000000E+00
  0.00000000E+00  0.00000000E+00  0.00000000E+00
  0.00000000E+00  0.00000000E+00  0.00000000E+00
  0.00000000E+00  0.00000000E+00  0.00000000E+00
  0.00000000E+00  0.00000000E+00  0.00000000E+00
  0.00000000E+00  0.00000000E+00  0.00000000E+00
  0.00000000E+00  0.00000000E+00  0.00000000E+00
  0.00000000E+00  0.00000000E+00  0.00000000E+00
  0.00000000E+00  0.00000000E+00  0.00000000E+00
  0.00000000E+00  0.00000000E+00  0.00000000E+00
  0.00000000E+00  0.00000000E+00  0.00000000E+00
  0.00000000E+00  0.00000000E+00  0.00000000E+00
  0.00000000E+00  0.00000000E+00  0.00000000E+00
  0.00000000E+00  0.00000000E+00  0.00000000E+00
  0.00000000E+00  0.00000000E+00  0.00000000E+00
  0.00000000E+00  0.00000000E+00  0.00000000E+00
  0.00000000E+00  0.00000000E+00  0.00000000E+00
  0.00000000E+00  0.00000000E+00  0.00000000E+00
  0.00000000E+00  0.00000000E+00  0.00000000E+00
  0.00000000E+00  0.00000000E+00  0.00000000E+00
  0.00000000E+00  0.00000000E+00  0.00000000E+00
  0.00000000E+00  0.00000000E+00  0.00000000E+00
  0.00000000E+00  0.00000000E+00  0.00000000E+00
  0.00000000E+00  0.00000000E+00  0.00000000E+00
  0.00000000E+00  0.00000000E+00  0.00000000E+00
  0.00000000E+00  0.00000000E+00  0.00000000E+00
  0.00000000E+00  0.00000000E+00  0.00000000E+00
  0.00000000E+00  0.00000000E+00  0.00000000E+00
  0.00000000E+00  0.00000000E+00  0.00000000E+00
  0.00000000E+00  0.00000000E+00  0.00000000E+00
  0.00000000E+00  0.00000000E+00  0.00000000E+00
  0.00000000E+00  0.00000000E+00  0.00000000E+00
  0.00000000E+00  0.00000000E+00  0.00000000E+00
  0.00000000E+00  0.00000000E+00  0.00000000E+00
  0.00000000E+00  0.00000000E+00  0.00000000E+00
  0.00000000E+00  0.00000000E+00  0.00000000E+00
  0.00000000E+00  0.00000000E+00  0.00000000E+00
  0.00000000E+00  0.00000000E+00  0.00000000E+00
  0.00000000E+00  0.00000000E+00  0.00000000E+00
  0.00000000E+00  0.00000000E+00  0.00000000E+00
  0.00000000E+00  0.00000000E+00  0.00000000E+00
  0.00000000E+00  0.00000000E+00  0.00000000E+00
  0.00000000E+00  0.00000000E+00  0.00000000E+00
  0.00000000E+00  0.00000000E+00  0.00000000E+00
  0.00000000E+00  0.00000000E+00  0.00000000E+00
  0.00000000E+00  0.00000000E+00  0.00000000E+00
  0.00000000E+00  0.00000000E+00  0.00000000E+00
  0.00000000E+00  0.00000000E+00  0.00000000E+00
  0.00000000E+00  0.00000000E+00  0.00000000E+00
